Pt
 1.0000000000000000
    19.9354000000000013    0.0000000000000000    0.0000000000000000
     0.0000000000000000   19.9354000000000013    0.0000000000000000
     0.0000000000000000    0.0000000000000000   19.9354000000000013
 Pt 
  43
Direct
  0.3012139249776778  0.3994335729405981  0.4034254140875025
  0.6019811902444896  0.4065255786189391  0.4978830933916550
  0.6009784243105230  0.3943063700753433  0.6921399520451056
  0.5004346479127582  0.4980150144968247  0.3016251381963743
  0.5048727088495841  0.5966626533703863  0.4030526325029846
  0.5968426106323425  0.4980503661827703  0.4003860965919921
  0.6075607592523851  0.6041085997772806  0.3039220391865726
  0.4961807342716975  0.4978131248934057  0.4987403428072674
  0.5069692205824814  0.6131241123829970  0.6012734888690470
  0.5932834726165515  0.3038217577776217  0.5996359837274396
  0.6018502708749259  0.5057617795479398  0.6073504735295002
  0.4993767579281077  0.5061285477091003  0.7006934488397523
  0.5992340058388594  0.5999536041413767  0.7037574987208683
  0.5998275113616982  0.7014527604161440  0.3964345029445108
  0.4994361738415080  0.6950293417739297  0.4938989044614103
  0.6034849764740110  0.7036290824362691  0.5944426467489992
  0.7092003300661135  0.3990820515264303  0.3994943783420448
  0.7077105059341673  0.3975556472405871  0.5957243436299247
  0.6928029505302126  0.6009920854359581  0.3905705604101247
  0.6004873451247529  0.5957689833161109  0.5017512966883031
  0.6950889743872708  0.5040695621858603  0.4977931453595111
  0.5037090407014657  0.4011136079536903  0.6028744078373145
  0.5941175847989004  0.4016023495891730  0.3038182333938622
  0.3980185975701516  0.2934129011707816  0.3978613531707414
  0.3963635949115643  0.4015552976112844  0.2977952737341613
  0.2969489134905745  0.4005768868445077  0.5970317229651774
  0.3957144857890987  0.3044466291120319  0.6043778745347472
  0.3982063439910912  0.3988336526982152  0.5027069113235750
  0.4016327061408348  0.4081882425233504  0.6942322536793843
  0.3055671147807418  0.5968394930625921  0.3969660844527825
  0.4027257195742247  0.5013441129849413  0.3989497371509977
  0.4993391599867572  0.2987136169828546  0.4967813492581036
  0.3932617690139149  0.5955124803114058  0.3038109122465563
  0.3010264514381452  0.6038547277706994  0.5984966401476769
  0.4020980843123287  0.4916649934287749  0.5981478856707163
  0.4088185760004815  0.6034936595202504  0.5038255565476489
  0.3972498545301323  0.5970011341633475  0.7056805125555543
  0.4064864958816979  0.6965567904330988  0.4018909733439007
  0.4070132302336547  0.6968263240266058  0.6016522828736819
  0.4982029761128445  0.4015149176841197  0.4046855503275579
  0.5935940783731452  0.3021537350642575  0.3975621693068611
  0.3016060334881668  0.4929688669402169  0.5014671107677798
  0.6993596180663542  0.6029604206587277  0.5966652798539281
