Pt                                      
   1.0000000000000000     
    19.9354000000000013    0.0000000000000000    0.0000000000000000
     0.0000000000000000   19.9354000000000013    0.0000000000000000
     0.0000000000000000    0.0000000000000000   19.9354000000000013
   Pt
    38
Direct
     0.3115163929885432    0.4047909000660956    0.5000000000000000
     0.5000000000000000    0.6884836070114566    0.4047909000660956
     0.3940038635736149    0.6059961364263851    0.6059961364263851
     0.5000000000000000    0.5952090999339045    0.6884836070114566
     0.5000000000000000    0.6884836070114566    0.5952090999339045
     0.5952090999339045    0.3115163929885432    0.5000000000000000
     0.5952090999339045    0.5000000000000000    0.3115163929885432
     0.6059961364263851    0.3940038635736149    0.3940038635736149
     0.5940532740519172    0.5000000000000000    0.5000000000000000
     0.6884836070114566    0.4047909000660956    0.5000000000000000
     0.6884836070114566    0.5000000000000000    0.4047909000660956
     0.6059961364263851    0.3940038635736149    0.6059961364263851
     0.5952090999339045    0.5000000000000000    0.6884836070114566
     0.6884836070114566    0.5000000000000000    0.5952090999339045
     0.6059961364263851    0.6059961364263851    0.3940038635736149
     0.5952090999339045    0.6884836070114566    0.5000000000000000
     0.5000000000000000    0.5940532740519172    0.5000000000000000
     0.4047909000660956    0.6884836070114566    0.5000000000000000
     0.3940038635736149    0.6059961364263851    0.3940038635736149
     0.5000000000000000    0.5952090999339045    0.3115163929885432
     0.3115163929885432    0.5000000000000000    0.4047909000660956
     0.3115163929885432    0.5000000000000000    0.5952090999339045
     0.3115163929885432    0.5952090999339045    0.5000000000000000
     0.4047909000660956    0.3115163929885432    0.5000000000000000
     0.5000000000000000    0.3115163929885432    0.4047909000660956
     0.5000000000000000    0.3115163929885432    0.5952090999339045
     0.4047909000660956    0.5000000000000000    0.3115163929885432
     0.6884836070114566    0.5952090999339045    0.5000000000000000
     0.5000000000000000    0.4047909000660956    0.3115163929885432
     0.4059467259480830    0.5000000000000000    0.5000000000000000
     0.5000000000000000    0.4059467259480830    0.5000000000000000
     0.5000000000000000    0.5000000000000000    0.4059467259480830
     0.3940038635736149    0.3940038635736149    0.6059961364263851
     0.4047909000660956    0.5000000000000000    0.6884836070114566
     0.5000000000000000    0.4047909000660956    0.6884836070114566
     0.5000000000000000    0.5000000000000000    0.5940532740519172
     0.3940038635736149    0.3940038635736149    0.3940038635736149
     0.6059961364263851    0.6059961364263851    0.6059961364263851

  0.00000000E+00  0.00000000E+00  0.00000000E+00
  0.00000000E+00  0.00000000E+00  0.00000000E+00
  0.00000000E+00  0.00000000E+00  0.00000000E+00
  0.00000000E+00  0.00000000E+00  0.00000000E+00
  0.00000000E+00  0.00000000E+00  0.00000000E+00
  0.00000000E+00  0.00000000E+00  0.00000000E+00
  0.00000000E+00  0.00000000E+00  0.00000000E+00
  0.00000000E+00  0.00000000E+00  0.00000000E+00
  0.00000000E+00  0.00000000E+00  0.00000000E+00
  0.00000000E+00  0.00000000E+00  0.00000000E+00
  0.00000000E+00  0.00000000E+00  0.00000000E+00
  0.00000000E+00  0.00000000E+00  0.00000000E+00
  0.00000000E+00  0.00000000E+00  0.00000000E+00
  0.00000000E+00  0.00000000E+00  0.00000000E+00
  0.00000000E+00  0.00000000E+00  0.00000000E+00
  0.00000000E+00  0.00000000E+00  0.00000000E+00
  0.00000000E+00  0.00000000E+00  0.00000000E+00
  0.00000000E+00  0.00000000E+00  0.00000000E+00
  0.00000000E+00  0.00000000E+00  0.00000000E+00
  0.00000000E+00  0.00000000E+00  0.00000000E+00
  0.00000000E+00  0.00000000E+00  0.00000000E+00
  0.00000000E+00  0.00000000E+00  0.00000000E+00
  0.00000000E+00  0.00000000E+00  0.00000000E+00
  0.00000000E+00  0.00000000E+00  0.00000000E+00
  0.00000000E+00  0.00000000E+00  0.00000000E+00
  0.00000000E+00  0.00000000E+00  0.00000000E+00
  0.00000000E+00  0.00000000E+00  0.00000000E+00
  0.00000000E+00  0.00000000E+00  0.00000000E+00
  0.00000000E+00  0.00000000E+00  0.00000000E+00
  0.00000000E+00  0.00000000E+00  0.00000000E+00
  0.00000000E+00  0.00000000E+00  0.00000000E+00
  0.00000000E+00  0.00000000E+00  0.00000000E+00
  0.00000000E+00  0.00000000E+00  0.00000000E+00
  0.00000000E+00  0.00000000E+00  0.00000000E+00
  0.00000000E+00  0.00000000E+00  0.00000000E+00
  0.00000000E+00  0.00000000E+00  0.00000000E+00
  0.00000000E+00  0.00000000E+00  0.00000000E+00
  0.00000000E+00  0.00000000E+00  0.00000000E+00
