Pt
 1.0000000000000000
    19.9354000000000013    0.0000000000000000    0.0000000000000000
     0.0000000000000000   19.9354000000000013    0.0000000000000000
     0.0000000000000000    0.0000000000000000   19.9354000000000013
 Pt 
  38
Direct
  0.3037822511712832  0.3993745011386779  0.4978408213529700
  0.5001852654072655  0.7005706582260701  0.3979102556256709
  0.3955235224776026  0.6010955606609347  0.5958316070909035
  0.5041377765181536  0.6050365094254442  0.6990151780250207
  0.4993625214442650  0.6926036352418310  0.5956472887426386
  0.5959427099531487  0.3045696013122385  0.4968555509295022
  0.6020551074972160  0.5002170024178095  0.3053002854219127
  0.5990516167220120  0.4036774767499021  0.4024887215706732
  0.5990426758429727  0.4990968227374419  0.4979905324197156
  0.6950600810618296  0.4037301102561272  0.5034104211603478
  0.6966834921797406  0.5037706657503737  0.4045800610973444
  0.5983000371198972  0.4017142028752871  0.5993352924947580
  0.6001801890105039  0.5008097324357675  0.6996242693901300
  0.7021679464670887  0.5047021529540415  0.5969044212807367
  0.6013664110075544  0.5974492305145620  0.4031193434794386
  0.5948844241901340  0.6975023375502873  0.5009040851951804
  0.4977551401025311  0.5975882380087683  0.5019050964615708
  0.3963935902966582  0.7041282336948342  0.4990947911754968
  0.3978062938290678  0.6023613712290699  0.4035185398838247
  0.5011306209055248  0.6005061744434522  0.2991385329614655
  0.2969711352669121  0.4968029590577565  0.4020810287227745
  0.3018477376927475  0.4937241816065893  0.5977772936585170
  0.3041052354103755  0.6019345937377729  0.4980990188308235
  0.4053200703271566  0.3012029821322872  0.4942970921075072
  0.5005609247870622  0.3018778163468002  0.3991899028863228
  0.5003292088445679  0.3035665494547388  0.5994132663503114
  0.4027174403322732  0.4984143082155361  0.2958633972731924
  0.7007283345205011  0.6027976709772565  0.4971095307844337
  0.5008078262788808  0.4013360384040450  0.3004540134634870
  0.3990120097916269  0.4977625776257311  0.5018607171162855
  0.4980125821403132  0.3985094781143092  0.4996885144015168
  0.4963736338372944  0.4968838076988673  0.4025944671288261
  0.4026666477723045  0.4028570838809354  0.5967177448157548
  0.4024673084061519  0.4996053688413575  0.6963979403473217
  0.5010773077038835  0.4015423482849604  0.6992202604412251
  0.5012030578769424  0.4973026149462764  0.5991934749240045
  0.4019735014095528  0.3956586384020386  0.4012968453103524
  0.5976245924335604  0.5979600584889192  0.6018258098658666
