Pt
 1.0000000000000000
     7.9346600463997685   -0.0265806179680971    0.0485367148384004
     0.0560814581270739    7.9964024450594122    0.0602864565358990
    -0.0602539520185497   -0.0070942741019935    8.0022590742155622
 Pt 
  32
Direct
  0.1256627441834285  0.1273404075568859  0.1237650158647734
  0.6274426628970984  0.8690791712293344  0.8715163750674487
  0.6206342609273899  0.6134802665250444  0.6202778445937156
  0.8759729622039210  0.8814121788026242  0.1247751371030987
  0.8787679402171210  0.6065863020296726  0.3665764461183139
  0.6178276737945576  0.8921667337645310  0.3887698541758168
  0.6139693318328677  0.6221935597564315  0.1218148989658509
  0.8775099146382958  0.3760844578571122  0.6237498706166539
  0.8965353042622319  0.1187432526925182  0.8661892194900672
  0.6359859843570254  0.3880379816278660  0.8773715946469279
  0.6278852019571987  0.1230784860415915  0.6181929219389882
  0.8944075942012329  0.3879009633289235  0.1333589626613788
  0.8755952932614313  0.1374436408970519  0.3710206434606206
  0.6337043543190819  0.3755387952666521  0.3699557277198479
  0.6326033244883746  0.1278527057449947  0.1227964299996020
  0.3732343467336719  0.8770918714380562  0.6199867192434770
  0.3821311409967551  0.6426807915522984  0.8642520715751938
  0.1201879837670752  0.8654547569295562  0.8617391196114773
  0.1252945070433307  0.6135157149377320  0.6225383346822569
  0.3776605203909970  0.8689382258104974  0.1277908704216251
  0.3814386916041984  0.6387060939600512  0.3708350197491494
  0.1349930632625533  0.8860846316098497  0.3825543885996565
  0.1353060691248556  0.6247369914341658  0.1287822937084225
  0.3855272460278930  0.3845393293263092  0.6369997463413821
  0.3843231688823942  0.1307388654936263  0.8810001247935252
  0.1191127667009868  0.3829772002413930  0.8725529034383196
  0.1244620147401359  0.1297423209899739  0.6169081520734246
  0.3688200264282660  0.3651533592799455  0.1245413883985113
  0.3758954083989819  0.1253651764868710  0.3803999534704496
  0.1289527420646469  0.3818455388248322  0.3872526888108486
  0.8744567047974591  0.6253476060336756  0.8666519239992958
  0.8560961735944206  0.8746654717827944  0.6122292113718115
