Au                                      
   1.0000000000000000     
     8.3164429844086136    0.0000000000000000    0.0000000000000000
     0.0000000000000000    8.3164429844086136    0.0000000000000000
     0.0000000000000000    0.0000000000000000    8.3164429844086136
   Au
    32
Direct
  0.0000000000000000  0.0000000000000000  0.0000000000000000
  0.0000000000000000  0.2500000004686882  0.2500000004686882
  0.2500000004686882  0.0000000000000000  0.2500000004686882
  0.2500000004686882  0.2500000004686882  0.0000000000000000
  0.0000000000000000  0.0000000000000000  0.4999999997349462
  0.0000000000000000  0.2500000004686882  0.7500000002036344
  0.2500000004686882  0.0000000000000000  0.7500000002036344
  0.2500000004686882  0.2500000004686882  0.4999999997349462
  0.0000000000000000  0.4999999997349462  0.0000000000000000
  0.0000000000000000  0.7500000002036344  0.2500000004686882
  0.2500000004686882  0.4999999997349462  0.2500000004686882
  0.2500000004686882  0.7500000002036344  0.0000000000000000
  0.0000000000000000  0.4999999997349462  0.4999999997349462
  0.0000000000000000  0.7500000002036344  0.7500000002036344
  0.2500000004686882  0.4999999997349462  0.7500000002036344
  0.2500000004686882  0.7500000002036344  0.4999999997349462
  0.4999999997349462  0.0000000000000000  0.0000000000000000
  0.4999999997349462  0.2500000004686882  0.2500000004686882
  0.7500000002036344  0.0000000000000000  0.2500000004686882
  0.7500000002036344  0.2500000004686882  0.0000000000000000
  0.4999999997349462  0.0000000000000000  0.4999999997349462
  0.4999999997349462  0.2500000004686882  0.7500000002036344
  0.7500000002036344  0.0000000000000000  0.7500000002036344
  0.7500000002036344  0.2500000004686882  0.4999999997349462
  0.4999999997349462  0.4999999997349462  0.0000000000000000
  0.4999999997349462  0.7500000002036344  0.2500000004686882
  0.7500000002036344  0.4999999997349462  0.2500000004686882
  0.7500000002036344  0.7500000002036344  0.0000000000000000
  0.4999999997349462  0.4999999997349462  0.4999999997349462
  0.4999999997349462  0.7500000002036344  0.7500000002036344
  0.7500000002036344  0.4999999997349462  0.7500000002036344
  0.7500000002036344  0.7500000002036344  0.4999999997349462

  0.00000000E+00  0.00000000E+00  0.00000000E+00
  0.00000000E+00  0.00000000E+00  0.00000000E+00
  0.00000000E+00  0.00000000E+00  0.00000000E+00
  0.00000000E+00  0.00000000E+00  0.00000000E+00
  0.00000000E+00  0.00000000E+00  0.00000000E+00
  0.00000000E+00  0.00000000E+00  0.00000000E+00
  0.00000000E+00  0.00000000E+00  0.00000000E+00
  0.00000000E+00  0.00000000E+00  0.00000000E+00
  0.00000000E+00  0.00000000E+00  0.00000000E+00
  0.00000000E+00  0.00000000E+00  0.00000000E+00
  0.00000000E+00  0.00000000E+00  0.00000000E+00
  0.00000000E+00  0.00000000E+00  0.00000000E+00
  0.00000000E+00  0.00000000E+00  0.00000000E+00
  0.00000000E+00  0.00000000E+00  0.00000000E+00
  0.00000000E+00  0.00000000E+00  0.00000000E+00
  0.00000000E+00  0.00000000E+00  0.00000000E+00
  0.00000000E+00  0.00000000E+00  0.00000000E+00
  0.00000000E+00  0.00000000E+00  0.00000000E+00
  0.00000000E+00  0.00000000E+00  0.00000000E+00
  0.00000000E+00  0.00000000E+00  0.00000000E+00
  0.00000000E+00  0.00000000E+00  0.00000000E+00
  0.00000000E+00  0.00000000E+00  0.00000000E+00
  0.00000000E+00  0.00000000E+00  0.00000000E+00
  0.00000000E+00  0.00000000E+00  0.00000000E+00
  0.00000000E+00  0.00000000E+00  0.00000000E+00
  0.00000000E+00  0.00000000E+00  0.00000000E+00
  0.00000000E+00  0.00000000E+00  0.00000000E+00
  0.00000000E+00  0.00000000E+00  0.00000000E+00
  0.00000000E+00  0.00000000E+00  0.00000000E+00
  0.00000000E+00  0.00000000E+00  0.00000000E+00
  0.00000000E+00  0.00000000E+00  0.00000000E+00
  0.00000000E+00  0.00000000E+00  0.00000000E+00
