Au
 1.0000000000000000
     8.3164429844086136    0.0000000000000000    0.0000000000000000
     0.0000000000000000    8.3164429844086136    0.0000000000000000
     0.0000000000000000    0.0000000000000000    8.3164429844086136
 Au 
  32
Cartesian
  0.0000000000000000  0.0000000000000000  0.0000000000000000
  0.0000000000000000  2.0791107499999999  2.0791107499999999
  2.0791107499999999  0.0000000000000000  2.0791107499999999
  2.0791107499999999  2.0791107499999999  0.0000000000000000
  0.0000000000000000  0.0000000000000000  4.1582214899999999
  0.0000000000000000  2.0791107499999999  6.2373322399999998
  2.0791107499999999  0.0000000000000000  6.2373322399999998
  2.0791107499999999  2.0791107499999999  4.1582214899999999
  0.0000000000000000  4.1582214899999999  0.0000000000000000
  0.0000000000000000  6.2373322399999998  2.0791107499999999
  2.0791107499999999  4.1582214899999999  2.0791107499999999
  2.0791107499999999  6.2373322399999998  0.0000000000000000
  0.0000000000000000  4.1582214899999999  4.1582214899999999
  0.0000000000000000  6.2373322399999998  6.2373322399999998
  2.0791107499999999  4.1582214899999999  6.2373322399999998
  2.0791107499999999  6.2373322399999998  4.1582214899999999
  4.1582214899999999  0.0000000000000000  0.0000000000000000
  4.1582214899999999  2.0791107499999999  2.0791107499999999
  6.2373322399999998  0.0000000000000000  2.0791107499999999
  6.2373322399999998  2.0791107499999999  0.0000000000000000
  4.1582214899999999  0.0000000000000000  4.1582214899999999
  4.1582214899999999  2.0791107499999999  6.2373322399999998
  6.2373322399999998  0.0000000000000000  6.2373322399999998
  6.2373322399999998  2.0791107499999999  4.1582214899999999
  4.1582214899999999  4.1582214899999999  0.0000000000000000
  4.1582214899999999  6.2373322399999998  2.0791107499999999
  6.2373322399999998  4.1582214899999999  2.0791107499999999
  6.2373322399999998  6.2373322399999998  0.0000000000000000
  4.1582214899999999  4.1582214899999999  4.1582214899999999
  4.1582214899999999  6.2373322399999998  6.2373322399999998
  6.2373322399999998  4.1582214899999999  6.2373322399999998
  6.2373322399999998  6.2373322399999998  4.1582214899999999
Cartesian
  0.0000000000000000  0.0000000000000000  0.0000000000000000
  0.0000000000000000  0.0000000000000000  0.0000000000000000
  0.0000000000000000  0.0000000000000000  0.0000000000000000
  0.0000000000000000  0.0000000000000000  0.0000000000000000
  0.0000000000000000  0.0000000000000000  0.0000000000000000
  0.0000000000000000  0.0000000000000000  0.0000000000000000
  0.0000000000000000  0.0000000000000000  0.0000000000000000
  0.0000000000000000  0.0000000000000000  0.0000000000000000
  0.0000000000000000  0.0000000000000000  0.0000000000000000
  0.0000000000000000  0.0000000000000000  0.0000000000000000
  0.0000000000000000  0.0000000000000000  0.0000000000000000
  0.0000000000000000  0.0000000000000000  0.0000000000000000
  0.0000000000000000  0.0000000000000000  0.0000000000000000
  0.0000000000000000  0.0000000000000000  0.0000000000000000
  0.0000000000000000  0.0000000000000000  0.0000000000000000
  0.0000000000000000  0.0000000000000000  0.0000000000000000
  0.0000000000000000  0.0000000000000000  0.0000000000000000
  0.0000000000000000  0.0000000000000000  0.0000000000000000
  0.0000000000000000  0.0000000000000000  0.0000000000000000
  0.0000000000000000  0.0000000000000000  0.0000000000000000
  0.0000000000000000  0.0000000000000000  0.0000000000000000
  0.0000000000000000  0.0000000000000000  0.0000000000000000
  0.0000000000000000  0.0000000000000000  0.0000000000000000
  0.0000000000000000  0.0000000000000000  0.0000000000000000
  0.0000000000000000  0.0000000000000000  0.0000000000000000
  0.0000000000000000  0.0000000000000000  0.0000000000000000
  0.0000000000000000  0.0000000000000000  0.0000000000000000
  0.0000000000000000  0.0000000000000000  0.0000000000000000
  0.0000000000000000  0.0000000000000000  0.0000000000000000
  0.0000000000000000  0.0000000000000000  0.0000000000000000
  0.0000000000000000  0.0000000000000000  0.0000000000000000
  0.0000000000000000  0.0000000000000000  0.0000000000000000
