Pt
 1.0000000000000000
    11.2501559320143070   -0.0303699490879230   -0.0295060804542170
     5.7331577354614929    9.9416280353539541   -0.0439262830679753
     0.0193950206894420   -0.0429586987515768   14.7918216825502515
 Pt 
  48
Direct
  0.5028994814929136 -0.0041005311007779  0.3244593948244513
  0.5900915943654390  0.3086487308059810  0.4914225568411130
  0.5782326669251888  0.8313046381905438  0.4930412446120734
  0.0675588411769394  0.0953619141601306  0.4934341907088269
  0.0850129156827462  0.5772069019016460  0.4918405547218026
  0.5920240553091758  0.0616493985958581  0.4929902357424328
  0.5754162108929367  0.5742316370512581  0.5012312125960339
  0.1896593935397978  0.1553519043271198  0.6620279967680740
  0.1643524150799985  0.6693779967819650  0.6412543996618105
  0.6536174264676934  0.1869071126018118  0.6542237893878372
  0.0712142721533138  0.8481954950384508  0.4988821760987731
  0.6761859680010075  0.6577699210669840  0.6472119844855840
  0.1892405168937828  0.9196071270316296  0.6449213209583035
  0.6643092516359378  0.4253383191187635  0.6583425600051973
  0.6485079424855057  0.9246124857767878  0.6630479522934359
  0.4198984805941754  0.1451316182400811  0.6548927237490739
  0.4312580016869098  0.6544236890616710  0.6594336291258407
  0.9245807207516377  0.1625230422028237  0.6634286923473699
  0.9071393421609378  0.6971007416015417  0.6660709324625135
  0.4178816506661003  0.4197670129666101  0.6532048405935913
  0.4144711314728133  0.9222639957578638  0.6412517106721162
  0.1436804100723203  0.4203113768286360  0.6555585140465752
  0.0567033963885682  0.3529224985034100  0.4986721383511464
  0.8372421489935599  0.5868717360717728  0.4901045343700532
  0.8459927815454520  0.0709304290723381  0.4876030962224269
  0.4863770434398873  0.4972334992310549  0.3342217162775163
  0.9795589511318435  0.0185850627836670  0.3472241051965485
  0.9775514119319904  0.4954339215655511  0.3460416195611054
  0.4967195422519142  0.2553343836639706  0.3485182337799700
  0.4968578147175123  0.7591789658689305  0.3596287794007688
  0.9876256609523461  0.2659951859458424  0.3482653632933142
  1.0027279168294847  0.7495947832325137  0.3506883773039012
  0.2225414719773320  0.0176049941282919  0.3401259916800623
  0.2539893343385672  0.5107927988368129  0.3547378403698837
  0.7580291280707807 -0.0055033258258629  0.3487499875608326
  0.7562853636884630  0.5021257380054762  0.3506585784636376
  0.2438710403927254  0.2449494830466521  0.3420447371155466
  0.2326350971785559  0.7504519473631953  0.3464675017417486
  0.7416834555411983  0.2310270792171472  0.3448269923782251
  0.7539869857768660  0.7578529992897826  0.3558291682385282
  0.3374710723111403  0.3292442026713488  0.5079869061374542
  0.3270148010273658  0.8355240281671545  0.4997262581065520
  0.8274812152814465  0.3384135543539215  0.5040799130029471
  0.8352515253399926  0.8404654257084843  0.4874282340362585
  0.3450383301885742  0.0699517863716903  0.4887949264037543
  0.3271701133234632  0.5890457231580484  0.4998243986123203
  0.9188591313171131  0.4161998005645182  0.6611185019383730
  0.9178955737185308  0.9077840172982495  0.6649487858522742
