Pt
 1.0000000000000000
     7.9047700065407689   -0.0278652988871129   -0.1184471748307422
    -0.0037958601576564    7.8885521122793554   -0.0614856094738151
     0.0161497496996893    0.0094154660340415    7.9299885891708453
 Pt 
  32
Direct
  0.1273691117083670  0.1333311169849635  0.1291166935385540
  0.6258645603387252  0.8737754063586120  0.8731097875546803
  0.6245346671692873  0.6173970263108332  0.6247507160509189
  0.8803588662353982  0.8801179494794750  0.1247260103786335
  0.8740378074167248  0.6285351749725925  0.3688104824370862
  0.6218326790818823  0.8733030978525871  0.3786638093505111
  0.6233655049944326  0.6299454102473222  0.1176276863388715
  0.8743539815083278  0.3763359578177338  0.6239372577914829
  0.8708843214368982  0.1254088506934765  0.8660673669159706
  0.6240770416819291  0.3796404399231207  0.8929742832119189
  0.6141549672491049  0.1206224955568319  0.6365951075047289
  0.8828850407010741  0.3671822093794588  0.1308381492654191
  0.8768468528601332  0.1263741401306488  0.3674921194070571
  0.6213434470625944  0.3770110880919159  0.3770514949437664
  0.6277359477294541  0.1276512736361117  0.1222059029481157
  0.3806152753021371  0.8752820031619063  0.6289729582075414
  0.3746002429068473  0.6200789397282056  0.8678102527652993
  0.1210106581688571  0.8802930894566934  0.8716443636683806
  0.1351676381086496  0.6257164740753960  0.6281020354090623
  0.3753602954222349  0.8802906453597109  0.1227923233975612
  0.3807017459175815  0.6232919225650686  0.3786966685042968
  0.1135950020748134  0.8822189451091186  0.3771757806416681
  0.1225718024223835  0.6265240527885521  0.1240607619902537
  0.3764832038898539  0.3768945875251949  0.6246512336799316
  0.3686262114423407  0.1206312855497869  0.8784872781457488
  0.1198537098092911  0.3766219749373486  0.8724670126812325
  0.1341551107825886  0.1187999438966337  0.6257633847788546
  0.3705091239922899  0.3800582351140048  0.1267727033781950
  0.3765542524799809  0.1219603365659163  0.3859337549591784
  0.1314094303799756  0.3805074213528561  0.3753314589317742
  0.8828015155147630  0.6272002063122065  0.8806856433480006
  0.8693292451456301  0.8664081092262705  0.6288184879034564
