Pt
 1.0000000000000000
    19.9354000000000013    0.0000000000000000    0.0000000000000000
     0.0000000000000000   19.9354000000000013    0.0000000000000000
     0.0000000000000000    0.0000000000000000   19.9354000000000013
 Pt 
  43
Direct
  0.3037822511712832  0.3993745011386779  0.3983268913590898
  0.6036517065120338  0.4060086494376837  0.4999873180372603
  0.5988764514381452  0.3940618452601903  0.6951612187365188
  0.4964287799592684  0.5035974612999989  0.2978276909417418
  0.5025411775033357  0.5997309324116897  0.4048142154157929
  0.5990516167220120  0.5031914067437824  0.4024887215706732
  0.5990426758429727  0.5986107527313221  0.2989626724319552
  0.4960322210740691  0.5032440402500075  0.5034104211603478
  0.4976556321919801  0.6032845957442539  0.6036079210851049
  0.5945513824653630  0.3025537706792941  0.5958316070909035
  0.5983000371198972  0.5012281328691673  0.5993352924947580
  0.5031400864793282  0.5047021529540415  0.6964183512746169
  0.6013664110075544  0.5974492305145620  0.7016611334610792
  0.5948844241901340  0.6975023375502873  0.4013901552013002
  0.5017004745327407  0.7023116009711367  0.4971095307844337
  0.5976245924335604  0.6974739884827994  0.6018258098658666
  0.6973227243998114  0.4035315544207790  0.3952949973414127
  0.7021510579170721  0.3996197633355739  0.5991554631459614
  0.6970061333105931  0.5993562878096250  0.3938035825717066
  0.6001801890105039  0.6003236624296476  0.5005964094023696
  0.6980654183011126  0.4999070763566318  0.5016751798308536
  0.5001852654072655  0.4020288682444295  0.5969381156134314
  0.5954214502844186  0.4055864437131935  0.3000669311877364
  0.3964850652607923  0.2977750990699961  0.4020810287227745
  0.4013616676866278  0.3942102516127090  0.2992355036768763
  0.3041052354103755  0.4029067337500125  0.5976129488247037
  0.4053200703271566  0.3012029821322872  0.5938110221013875
  0.4010469947931820  0.4013917463406804  0.4987038328802030
  0.4008152788506877  0.4030804794486190  0.6989271963441916
  0.3032035103383930  0.5979282382094163  0.3953773272670726
  0.4012938962850005  0.5008499683979253  0.3999679434573672
  0.4977551401025311  0.2990464480271275  0.5019050964615708
  0.4019735014095528  0.5946864983897989  0.3017829153164722
  0.2989847221525527  0.5975373381020697  0.5992024443953970
  0.3968597038434142  0.4968838076988673  0.6016223271165865
  0.4026666477723045  0.6018849438686957  0.4972038148218746
  0.4024673084061519  0.5991192988352377  0.6963979403473217
  0.4015633777100033  0.7000841382666010  0.4006784704595844
  0.4016891278830623  0.6963304749340369  0.5991934749240045
  0.5011306209055248  0.4014783144556919  0.3986524629553457
  0.5968341538168283  0.3038195812474292  0.4035185398838247
  0.2994980797977467  0.4977625776257311  0.5018607171162855
  0.6986593762854018  0.6010331851881577  0.6000577219418721
