Pt
 1.0000000000000000
    21.5463013567337569    0.0000000000000000    0.0000000000000000
     0.0000000000000000   21.5463013567337569    0.0000000000000000
     0.0000000000000000    0.0000000000000000   21.5463013567337569
 Pt 
  55
Direct
  0.4999964778935549  0.4995544368284871  0.4998645814741672
  0.5004813750379427  0.4994574781920413  0.2784046324556438
  0.4995344477829025  0.6377972192292404  0.2790305435935563
  0.6107343191822324  0.4325834645901807  0.6791270435576139
  0.6115426347121995  0.5676241034370271  0.6792485094164946
  0.6109297151311841  0.4316330541387090  0.3209076669596977
  0.6109476657758725  0.5683689556385390  0.3205545724831080
  0.3890717887587739  0.4316124895883175  0.6784146591095424
  0.3898019224248513  0.5683263473975793  0.6801850325656844
  0.3885677263760854  0.4321188112914895  0.3203558724868016
  0.3894697210933331  0.5690935254726613  0.3205129917966985
  0.6790731670253598  0.6108273699553931  0.4315167729283741
  0.5010371929392020  0.3627217581618722  0.2792160338980791
  0.6796456202643537  0.6111104909374587  0.5685661908822887
  0.3210440458189436  0.6109093111651984  0.5689983444034817
  0.6794302426956859  0.3883743154546004  0.4315566735120412
  0.6785761652512408  0.3889561457090112  0.5684250279072777
  0.3206085251305139  0.3894309000452956  0.4319544197357718
  0.3214427973196190  0.3894278238792798  0.5683042637929678
  0.4312830516081056  0.6786633022483948  0.6106687608306335
  0.5679926065907027  0.6784976520079704  0.6104991085112178
  0.4315397843024281  0.3212143492942013  0.6111504346839863
  0.5685738766561604  0.3212880617135026  0.6106483183429551
  0.4315889105994419  0.6782503919371213  0.3895629134221117
  0.5682467611163140  0.6788797500703567  0.3902186282831491
  0.3200718552952344  0.6114015093306476  0.4312502933175613
  0.4302482461614143  0.3212821131287372  0.3896507540203037
  0.4999817950951124  0.6365608065587347  0.7219670769683377
  0.4995085672389165  0.3628650351888147  0.7212981426690643
  0.6106385542541438  0.4997703295667806  0.4316000934932487
  0.6110264222163354  0.4993123971431762  0.5684367751670885
  0.3895165421223022  0.5003461235183546  0.4324725564598044
  0.3893713687141978  0.4994418342077482  0.5679977777798620
  0.4323777684975372  0.6115516975205566  0.4993720983410153
  0.5689426536387360  0.6108365863864044  0.4999001936187898
  0.4310376252626532  0.3889525747945082  0.4996828918219534
  0.5689545698370545  0.3889552634230130  0.4990236803050978
  0.4993172471635239  0.4317083283109740  0.6105937396020135
  0.4998758237749217  0.5689064353575990  0.6102069734530570
  0.4999564269360512  0.4318592581594969  0.3885528184810049
  0.4998809091024768  0.5002835670740868  0.7215256671020904
  0.4998401420127821  0.5685898144263750  0.3896263730376328
  0.7221246552897297  0.4997257915282508  0.5000414350295367
  0.7212445237216231  0.4998430399579545  0.6375953386406428
  0.2785082572013963  0.5006692625056326  0.3630061025557690
  0.2788197143693294  0.5000560723445346  0.4998726710296373
  0.2784610254290772  0.5000667405328326  0.6369939296198807
  0.3634932710876767  0.7217381824625780  0.4999072625814614
  0.4992555061724381  0.7212892585456675  0.5000175149148280
  0.6372609179026841  0.7218116428664679  0.4998543258856863
  0.3634287361135771  0.2785873779735314  0.5001410929691732
  0.4999209099353683  0.2784375299812220  0.5009709133501274
  0.6370226584485436  0.2776373615572056  0.5003092949236524
  0.7215603797883940  0.4992593151788490  0.3634913101942825
  0.5681361662647640  0.3207581814425933  0.3894995698357855
