Pt
 1.0000000000000000
     7.8765562797972040    0.0203657003214606    0.1541171152371437
    -0.0869374373017472    7.9200182177547109   -0.1487599850509862
     0.1012075698621947    0.0652729154350413    7.9943011055730286
 Pt 
  32
Direct
  0.1297856208951672  0.1249305416143256  0.0972121339624758
  0.6270378358831930  0.8571024265961867  0.8646258841736858
  0.6175556633008764  0.6246348104746225  0.6172432739995649
  0.8806214785208561  0.8698831380520977  0.1344370191382973
  0.8949888413401816  0.6081055664454431  0.3895278881109711
  0.6139537539644695  0.8883056332391410  0.3539657068081513
  0.6198722679496804  0.6333139909165382  0.1276146695748317
  0.8791213851528989  0.3572055979731694  0.6381249192672118
  0.8684352561880506  0.1202647806018241  0.8718610793445906
  0.6263804462384472  0.3780045283847591  0.8776459878006535
  0.6244839104928002  0.1372815684475081  0.6089429971407019
  0.8836528411442691  0.3922835187218984  0.1219664571994711
  0.8858775291453476  0.1473960536211688  0.3649809979578978
  0.6384335093895263  0.3926676594931262  0.3758328795401309
  0.6302095245146160  0.1026068756596713  0.1224790885964399
  0.3812901274921719  0.8609495377311760  0.6232054422333310
  0.3717197281430191  0.6342483388671448  0.8644398465818111
  0.1194362446965799  0.8798949935433805  0.8711547244253266
  0.1477873018522781  0.6255681378367192  0.6392099955605217
  0.3818587875515775  0.8729432339108208  0.1295291112990054
  0.3558839571045436  0.6206244807281209  0.3851072081211760
  0.1314347584438526  0.8643890945264673  0.3597938450131173
  0.1287813375255399  0.6375679735117048  0.1220482117308033
  0.3825826916569916  0.3690470838966288  0.6321676856007645
  0.3799444542650306  0.1274329664130865  0.8654316908471037
  0.1300463326644056  0.3794760906084794  0.8794286903989186
  0.1154516563287051  0.1453597984250151  0.6224925643279585
  0.3863122358219208  0.3661368660055128  0.1168126437840713
  0.3907822667553461  0.0997237420061042  0.3925558076045154
  0.1049522031394778  0.3632770613420653  0.3887459414385181
  0.8825045374375564  0.6305868143122595  0.8801235465939506
  0.8873188855850149  0.8942200551859378  0.6397759538397250
