Au                                      
   1.0000000000000000     
     0.0060251011763226    6.2077045450113575    6.3071782331521336
     6.1724444139979555   -0.1883705615293571    6.1685260024758053
     6.1312029853804537    6.2605763320879939   -0.0791651286944706
   Au
    27
Direct
  0.0030602996248703  0.9868040398231201  0.9969299829122278
  0.0260559895995058  0.9928505720246434  0.3211119402653395
  0.0067543483625556  0.0038601816629793  0.6535083159339266
  0.0030572566339941  0.3111803361723133  0.0269593148947749
  0.9785828557588587  0.3411509893664615  0.3441596464588628
  0.9950981971143875  0.3322695556447997  0.6768450989262860
  0.0121675575510380  0.6653337641979675  0.9719679470010831
  0.9879921030355234  0.6846718057926822  0.3177952369793005
  0.0063094481402288  0.6562432360096437  0.6773747498668428
  0.3111013855304563  0.0170769261395449  0.9893818154712193
  0.3324685712371718  0.0165591528651987  0.3505297243855097
  0.3482988337027280  0.0112586578692913  0.6421645138484351
  0.3195428483410083  0.3531661572019047  0.0044350526054018
  0.3205211498815999  0.3551308910327506  0.3379302965486559
  0.3474056791767453  0.3357839189845819  0.6568820654266929
  0.3413625067714605  0.6465956504568737  0.9961378860762764
  0.3519160126733638  0.6589813630945400  0.3191195270360154
  0.3236884660972308  0.6635319596038514  0.6671460635750677
  0.6674112131420245  0.0128417206751834  0.0021459447515184
  0.6847490703389241  0.9819126939481890  0.3262018813507694
  0.6693123777035197  0.9890136688721753  0.6877520632509899
  0.6377281215666954  0.3351502539349553  0.0041514888439451
  0.6632579879306277  0.3394008966233741  0.3289948611810161
  0.6567115558700181  0.3538694185354672  0.6658065391803376
  0.6679139268162686  0.6648713464206821  0.9909490393059670
  0.6657884696640508  0.6797323605614025  0.3528856083066287
  0.6673566413104837  0.6607497172510932  0.6570999715756685

  0.00000000E+00  0.00000000E+00  0.00000000E+00
  0.00000000E+00  0.00000000E+00  0.00000000E+00
  0.00000000E+00  0.00000000E+00  0.00000000E+00
  0.00000000E+00  0.00000000E+00  0.00000000E+00
  0.00000000E+00  0.00000000E+00  0.00000000E+00
  0.00000000E+00  0.00000000E+00  0.00000000E+00
  0.00000000E+00  0.00000000E+00  0.00000000E+00
  0.00000000E+00  0.00000000E+00  0.00000000E+00
  0.00000000E+00  0.00000000E+00  0.00000000E+00
  0.00000000E+00  0.00000000E+00  0.00000000E+00
  0.00000000E+00  0.00000000E+00  0.00000000E+00
  0.00000000E+00  0.00000000E+00  0.00000000E+00
  0.00000000E+00  0.00000000E+00  0.00000000E+00
  0.00000000E+00  0.00000000E+00  0.00000000E+00
  0.00000000E+00  0.00000000E+00  0.00000000E+00
  0.00000000E+00  0.00000000E+00  0.00000000E+00
  0.00000000E+00  0.00000000E+00  0.00000000E+00
  0.00000000E+00  0.00000000E+00  0.00000000E+00
  0.00000000E+00  0.00000000E+00  0.00000000E+00
  0.00000000E+00  0.00000000E+00  0.00000000E+00
  0.00000000E+00  0.00000000E+00  0.00000000E+00
  0.00000000E+00  0.00000000E+00  0.00000000E+00
  0.00000000E+00  0.00000000E+00  0.00000000E+00
  0.00000000E+00  0.00000000E+00  0.00000000E+00
  0.00000000E+00  0.00000000E+00  0.00000000E+00
  0.00000000E+00  0.00000000E+00  0.00000000E+00
  0.00000000E+00  0.00000000E+00  0.00000000E+00
