Au
 1.0000000000000000
     0.0060251011763226    6.2077045450113575    6.3071782331521336
     6.1724444139979555   -0.1883705615293571    6.1685260024758053
     6.1312029853804537    6.2605763320879939   -0.0791651286944706
 Au 
  27
Cartesian
 -0.1002557900000000  0.0022630900000000 -0.0618547300000000
  1.9248300300000001  2.1734404399999998  0.0948174700000000
  4.0306595900000000  4.1325405499999999  0.0146774400000000
  2.0860547800000000  0.1291421800000000  1.9366724200000001
  4.2157191300000001  1.9574236300000001  1.9420715600000000
  6.2007605200000002  4.1444216599999999  1.9651143200000001
  3.9349387800000000 -0.2252935000000000  4.1830907399999999
  6.1744934200000001  1.7860678500000000  4.1225215899999998
  8.2037849999999999  4.1563066099999997  4.0342238200000002
  0.0421785500000000  1.8615327399999999  2.0683519399999999
  2.2533824999999998  4.2552655000000001  2.1713343699999998
  4.0088329600000003  6.1803354099999996  2.2153951099999998
  2.2090159599999999  1.9448674699999999  4.1935772199999999
  4.2658760999999998  4.0384428100000003  4.1854658599999999
  6.1021780100000003  6.2058003199999998  4.2104392199999996
  3.9694530499999998  1.9730989400000001  6.1418819999999998
  6.0262327600000001  4.0583301000000001  6.2592775500000002
  8.1879723299999991  6.0610913300000000  6.0817602900000001
  0.0964432500000000  4.1541074699999996  4.2885260799999996
  1.8924927400000000  6.2963388100000000  4.1814385999999999
  4.1529676599999998  8.4626872800000008  4.0992570099999996
  2.0979923100000000  3.9216860300000000  6.0893193300000004
  4.1160636400000001  6.1130739299999997  6.2508446800000002
  6.2703911100000003  8.1783453900000005  6.2721408800000003
  4.0524123999999997  3.9643058999999998  8.3146448900000003
  6.3632349499999998  6.2142438300000000  8.3642570500000009
  8.1112751000000003  8.1321115899999992  8.2329696899999991
Cartesian
  0.0000000000000000  0.0000000000000000  0.0000000000000000
  0.0000000000000000  0.0000000000000000  0.0000000000000000
  0.0000000000000000  0.0000000000000000  0.0000000000000000
  0.0000000000000000  0.0000000000000000  0.0000000000000000
  0.0000000000000000  0.0000000000000000  0.0000000000000000
  0.0000000000000000  0.0000000000000000  0.0000000000000000
  0.0000000000000000  0.0000000000000000  0.0000000000000000
  0.0000000000000000  0.0000000000000000  0.0000000000000000
  0.0000000000000000  0.0000000000000000  0.0000000000000000
  0.0000000000000000  0.0000000000000000  0.0000000000000000
  0.0000000000000000  0.0000000000000000  0.0000000000000000
  0.0000000000000000  0.0000000000000000  0.0000000000000000
  0.0000000000000000  0.0000000000000000  0.0000000000000000
  0.0000000000000000  0.0000000000000000  0.0000000000000000
  0.0000000000000000  0.0000000000000000  0.0000000000000000
  0.0000000000000000  0.0000000000000000  0.0000000000000000
  0.0000000000000000  0.0000000000000000  0.0000000000000000
  0.0000000000000000  0.0000000000000000  0.0000000000000000
  0.0000000000000000  0.0000000000000000  0.0000000000000000
  0.0000000000000000  0.0000000000000000  0.0000000000000000
  0.0000000000000000  0.0000000000000000  0.0000000000000000
  0.0000000000000000  0.0000000000000000  0.0000000000000000
  0.0000000000000000  0.0000000000000000  0.0000000000000000
  0.0000000000000000  0.0000000000000000  0.0000000000000000
  0.0000000000000000  0.0000000000000000  0.0000000000000000
  0.0000000000000000  0.0000000000000000  0.0000000000000000
  0.0000000000000000  0.0000000000000000  0.0000000000000000
