Au                                      
   1.0000000000000000     
    -0.2056742309301608    6.2448783120375140    6.3016194154112348
     6.2412373082962898    0.0583468313592384    6.2355930593452058
     6.3623380090491324    6.2503916029221323    0.0442223756499520
   Au
    27
Direct
  0.9915129715719289  0.0159047223922357  0.9922106527903978
  0.9939132249496936  0.0120226247224267  0.3229162691984158
  0.0014513866998485  0.9910002383056238  0.6581994866258043
  0.9839085636749374  0.3482593443156432  0.0120015556223336
  0.0165900278820743  0.3094588634674409  0.3505686154991281
  0.0127164850151829  0.3241039661612248  0.6713361458992608
  0.0194236325705504  0.6640234395626265  0.9933542443311651
  0.0036883222513779  0.6385441978321822  0.3431362196147134
  0.0102868960107401  0.6419124740660322  0.6847838438365343
  0.3356664892952779  0.0006676476266634  0.0054955221977764
  0.3278835125806268  0.0022768603368419  0.3321482936931304
  0.3358364403201648  0.9972230771374484  0.6562209238514143
  0.3287203668182030  0.3233745164961022  0.0128630263925444
  0.3286221359288746  0.3555665262078946  0.3206717126977452
  0.3220915975335501  0.3479880700694622  0.6746161992254258
  0.3293603005259200  0.6638474976174535  0.9994970178203317
  0.3383753080299243  0.6502957922476256  0.3464743885196881
  0.3259911068086723  0.6716979809418575  0.6696619914819735
  0.6613199387612383  0.0142426063720862  0.9772779430694030
  0.6738055124572071  0.9927369715333398  0.3346432697823047
  0.6539196366854085  0.0176075688025108  0.6590174566461613
  0.6593322960570873  0.3576980532744898  0.9811198207149872
  0.6505839419774659  0.3314212342649938  0.3498815147355145
  0.6549474403910196  0.3054908624706414  0.6802665257254290
  0.6373406630732603  0.6734234869404929  0.0058398531623567
  0.6905195307176513  0.6609327557886076  0.3010705242310721
  0.6606523766671444  0.6647904338245212  0.6824129377477064

  0.00000000E+00  0.00000000E+00  0.00000000E+00
  0.00000000E+00  0.00000000E+00  0.00000000E+00
  0.00000000E+00  0.00000000E+00  0.00000000E+00
  0.00000000E+00  0.00000000E+00  0.00000000E+00
  0.00000000E+00  0.00000000E+00  0.00000000E+00
  0.00000000E+00  0.00000000E+00  0.00000000E+00
  0.00000000E+00  0.00000000E+00  0.00000000E+00
  0.00000000E+00  0.00000000E+00  0.00000000E+00
  0.00000000E+00  0.00000000E+00  0.00000000E+00
  0.00000000E+00  0.00000000E+00  0.00000000E+00
  0.00000000E+00  0.00000000E+00  0.00000000E+00
  0.00000000E+00  0.00000000E+00  0.00000000E+00
  0.00000000E+00  0.00000000E+00  0.00000000E+00
  0.00000000E+00  0.00000000E+00  0.00000000E+00
  0.00000000E+00  0.00000000E+00  0.00000000E+00
  0.00000000E+00  0.00000000E+00  0.00000000E+00
  0.00000000E+00  0.00000000E+00  0.00000000E+00
  0.00000000E+00  0.00000000E+00  0.00000000E+00
  0.00000000E+00  0.00000000E+00  0.00000000E+00
  0.00000000E+00  0.00000000E+00  0.00000000E+00
  0.00000000E+00  0.00000000E+00  0.00000000E+00
  0.00000000E+00  0.00000000E+00  0.00000000E+00
  0.00000000E+00  0.00000000E+00  0.00000000E+00
  0.00000000E+00  0.00000000E+00  0.00000000E+00
  0.00000000E+00  0.00000000E+00  0.00000000E+00
  0.00000000E+00  0.00000000E+00  0.00000000E+00
  0.00000000E+00  0.00000000E+00  0.00000000E+00
