Au
 1.0000000000000000
    -0.2056742309301608    6.2448783120375140    6.3016194154112348
     6.2412373082962898    0.0583468313592384    6.2355930593452058
     6.3623380090491324    6.2503916029221323    0.0442223756499520
 Au 
  27
Cartesian
  0.0514522500000000 -0.1007589400000000  0.0453488900000000
  2.1307904000000000  1.9810434500000000  0.0508917800000000
  4.1312194499999997  4.1225431700000001 -0.0178656200000000
  2.2532367600000001 -0.0051548100000000  2.0707321799999998
  4.1584300900000004  2.3128497800000001  2.0497065600000002
  6.2914617899999996  4.2944371500000003  2.1308029700000000
  4.0980503800000001  0.1185033100000000  4.2626863999999998
  6.1676958900000001  2.2050258999999999  4.0201184699999999
  8.3610386099999996  4.3818611599999997  4.0978118400000003
 -0.0299066300000000  2.1305844999999999  2.1196486700000001
  2.0600129500000000  4.1237823899999997  2.0950830699999998
  4.0886949899999996  6.1987334299999999  2.1280173200000001
  2.0324867100000001  2.1520855200000000  4.0884713699999997
  4.1918077900000004  4.0772752099999998  4.3022006599999996
  6.3977664699999997  6.2483422600000003  4.2294437900000004
  4.0722886999999997  2.0924045599999999  6.2149638700000001
  6.1934424500000000  4.3166559299999996  6.2026142599999998
  8.3857944700000004  6.2606159300000002  6.2723212000000004
 -0.1916903900000000  3.9886718000000001  4.2551928400000003
  1.9451988800000000  6.2990611400000001  4.2155753300000001
  4.1682904100000000  8.2037930800000005  4.2596896299999996
  1.9767486900000000  4.0203119899999997  6.3844857700000004
  4.1607346800000000  6.2690514100000003  6.1818129400000004
  6.1000207299999998  8.3598236700000008  6.0622292099999999
  4.1090663599999999  4.0559083800000000  8.2157313700000003
  5.8985285400000000  6.2325824499999998  8.4860130399999996
  8.3549774600000006  8.4298302100000004  8.3387203799999998
Cartesian
  0.0000000000000000  0.0000000000000000  0.0000000000000000
  0.0000000000000000  0.0000000000000000  0.0000000000000000
  0.0000000000000000  0.0000000000000000  0.0000000000000000
  0.0000000000000000  0.0000000000000000  0.0000000000000000
  0.0000000000000000  0.0000000000000000  0.0000000000000000
  0.0000000000000000  0.0000000000000000  0.0000000000000000
  0.0000000000000000  0.0000000000000000  0.0000000000000000
  0.0000000000000000  0.0000000000000000  0.0000000000000000
  0.0000000000000000  0.0000000000000000  0.0000000000000000
  0.0000000000000000  0.0000000000000000  0.0000000000000000
  0.0000000000000000  0.0000000000000000  0.0000000000000000
  0.0000000000000000  0.0000000000000000  0.0000000000000000
  0.0000000000000000  0.0000000000000000  0.0000000000000000
  0.0000000000000000  0.0000000000000000  0.0000000000000000
  0.0000000000000000  0.0000000000000000  0.0000000000000000
  0.0000000000000000  0.0000000000000000  0.0000000000000000
  0.0000000000000000  0.0000000000000000  0.0000000000000000
  0.0000000000000000  0.0000000000000000  0.0000000000000000
  0.0000000000000000  0.0000000000000000  0.0000000000000000
  0.0000000000000000  0.0000000000000000  0.0000000000000000
  0.0000000000000000  0.0000000000000000  0.0000000000000000
  0.0000000000000000  0.0000000000000000  0.0000000000000000
  0.0000000000000000  0.0000000000000000  0.0000000000000000
  0.0000000000000000  0.0000000000000000  0.0000000000000000
  0.0000000000000000  0.0000000000000000  0.0000000000000000
  0.0000000000000000  0.0000000000000000  0.0000000000000000
  0.0000000000000000  0.0000000000000000  0.0000000000000000
