Pt
 1.0000000000000000
    21.5463013567337569    0.0000000000000000    0.0000000000000000
     0.0000000000000000   21.5463013567337569    0.0000000000000000
     0.0000000000000000    0.0000000000000000   21.5463013567337569
 Pt 
  55
Direct
  0.5026000142996985  0.4989715372490159  0.4980022516322308
  0.4963288706930594  0.5030015008405566  0.2816255100833630
  0.4978309080712699  0.6404017808693505  0.2822579731578544
  0.6096418295892265  0.4326797980613243  0.6790561984517774
  0.6113814126099701  0.5692057071394812  0.6797732992545643
  0.6136702852653499  0.4358940843025383  0.3183641102214610
  0.6124789471523713  0.5665461806132688  0.3232149177113198
  0.3849516514539898  0.4301320187886259  0.6800579713149076
  0.3908083731210040  0.5714947468769016  0.6765471158438195
  0.3874869520188325  0.4301057892288215  0.3229175529852855
  0.3876573821979711  0.5712743034735833  0.3159755564206057
  0.6821111733595442  0.6099634286370293  0.4312118203571085
  0.4995639790694777  0.3622513210398725  0.2766108373462144
  0.6773509071634183  0.6106191100816587  0.5622736403533030
  0.3204375862793848  0.6121706348397374  0.5689596495952083
  0.6842079476156918  0.3899170772237618  0.4338201487690026
  0.6824155425360177  0.3900457536009320  0.5651270261378095
  0.3200555179204724  0.3908903115461086  0.4283040391577883
  0.3228638133674815  0.3904635204301881  0.5659583497930133
  0.4323400288415964  0.6795101947009733  0.6128552757790693
  0.5699000922106027  0.6818203466465853  0.6109074407745763
  0.4348955778933037  0.3247947034683478  0.6106914120500664
  0.5712629999094139  0.3237736312371676  0.6088215208175553
  0.4316241653741443  0.6803616939767071  0.3887974465455962
  0.5665942867816008  0.6813397778552849  0.3880671638980325
  0.3198880348828850  0.6106789899644579  0.4330934221842049
  0.4299863780149244  0.3174956878555893  0.3854477389180528
  0.4995722514869589  0.6398658299509628  0.7233828563865750
  0.4966957805338303  0.3664154705388750  0.7186205768518588
  0.6070630951196728  0.4970419847327087  0.4330191987723292
  0.6115751001450558  0.4941933909539524  0.5668497162360059
  0.3921338846102914  0.5022396837783967  0.4297846310919593
  0.3937076219974464  0.5002135829048767  0.5631799819883092
  0.4320624735479529  0.6116029299795166  0.4988007399535047
  0.5687611092550742  0.6131654055730124  0.4999068625127973
  0.4336080288360113  0.3877678953649679  0.4952732106229894
  0.5692039434957182  0.3900214547669311  0.4995206110693495
  0.5013762242132501  0.4270769756556927  0.6115151237259664
  0.4986361474352212  0.5663863717466335  0.6124865674857770
  0.4981611707869993  0.4297146733774058  0.3889468364546441
  0.5023511873706014  0.5002007783870418  0.7255344855331483
  0.4966447578556547  0.5655733022684920  0.3911857975274188
  0.7233630441694834  0.4996348733716927  0.4975667054173781
  0.7225266950577892  0.5009773060946510  0.6370910432713308
  0.2795831795101740  0.4975042840310932  0.3627904762205072
  0.2795161582624856  0.5009180597312559  0.4983034819869233
  0.2759906441270277  0.5026345534063266  0.6397187759416672
  0.3593004656263455  0.7262489784637499  0.4991624688586639
  0.4979229763092081  0.7197482140085909  0.5017626626957602
  0.6370844416742565  0.7229573838264255  0.4976167650532359
  0.3584954481102149  0.2799334484438090  0.4965929847006463
  0.5038284167787036  0.2835797536123500  0.4999882662753717
  0.6363232098633558  0.2725261478887129  0.4964224463822981
  0.7235474800006827  0.5021937454995425  0.3604998427060653
  0.5650097953445435  0.3227573658634748  0.3884138452089605
