Au                                      
   1.0000000000000000     
     8.3097309904120618   -0.0465876703058896    0.0465481800802935
    -0.1148977506162480    8.2297532221648222   -0.1034672520627625
     0.0964221071860800   -0.1165263158777414    8.3691057128134645
   Au
    32
Direct
  0.0145901442406640  0.0014442772815926  0.9844328278634933
  0.9911429354116592  0.2563258110187334  0.2201099293937645
  0.2535484162998074  0.9929828973423369  0.2495048998045917
  0.2407861894876007  0.2447719080165740  0.0049502215908319
  0.0040214819607058  0.9957471499263519  0.5130591444255401
  0.9973593941600782  0.2585934329807671  0.7315000679146735
  0.2491527490016381  0.0075667970644062  0.7364014364444316
  0.2601385715522042  0.2351314854129285  0.5036294099071341
  0.9689240719541061  0.4990593165260435  0.0037339490101402
  0.9927344114198249  0.7584748725434878  0.2588587210016300
  0.2665522707147403  0.4944823918637269  0.2556692727522289
  0.2553196019191475  0.7513832094105268  0.0051437590338637
  0.0113901053511825  0.5116296019251436  0.5196418171241106
  0.9914862848815815  0.7328485810160927  0.7513535845500030
  0.2618833949859010  0.5044009883842477  0.7598327595551737
  0.2486751747618428  0.7762749843622103  0.4933436396124478
  0.4921482028713697  0.0108781791433827  0.0057961296934863
  0.5135553360302367  0.2578191379396699  0.2418835119228717
  0.7405820630605504  0.0076698825897523  0.2592400501188408
  0.7457224277480563  0.2446603225135249  0.0165967397436333
  0.5064488154664915  0.9849253640122484  0.5050382398328921
  0.5052565310831767  0.2572292320054004  0.7451852878667538
  0.7434571845802225  0.9839062444347206  0.7489147358755730
  0.7423891871296036  0.2577597994017253  0.5158263738925726
  0.4937713773052579  0.5081563936376625  0.9888401154763145
  0.4919015879870798  0.7395622550882237  0.2382194321564697
  0.7494781063073006  0.4901620406215272  0.2505249054674792
  0.7587802510329524  0.7635085069461951  0.0202946519260436
  0.5009332686973096  0.4959093257149547  0.5088764438336639
  0.5104073935194648  0.7603076988774902  0.7401198832479352
  0.7468715182074135  0.5033270883569685  0.7183811015303263
  0.7388324158021007  0.7477680968758591  0.4944742589985580

  0.00000000E+00  0.00000000E+00  0.00000000E+00
  0.00000000E+00  0.00000000E+00  0.00000000E+00
  0.00000000E+00  0.00000000E+00  0.00000000E+00
  0.00000000E+00  0.00000000E+00  0.00000000E+00
  0.00000000E+00  0.00000000E+00  0.00000000E+00
  0.00000000E+00  0.00000000E+00  0.00000000E+00
  0.00000000E+00  0.00000000E+00  0.00000000E+00
  0.00000000E+00  0.00000000E+00  0.00000000E+00
  0.00000000E+00  0.00000000E+00  0.00000000E+00
  0.00000000E+00  0.00000000E+00  0.00000000E+00
  0.00000000E+00  0.00000000E+00  0.00000000E+00
  0.00000000E+00  0.00000000E+00  0.00000000E+00
  0.00000000E+00  0.00000000E+00  0.00000000E+00
  0.00000000E+00  0.00000000E+00  0.00000000E+00
  0.00000000E+00  0.00000000E+00  0.00000000E+00
  0.00000000E+00  0.00000000E+00  0.00000000E+00
  0.00000000E+00  0.00000000E+00  0.00000000E+00
  0.00000000E+00  0.00000000E+00  0.00000000E+00
  0.00000000E+00  0.00000000E+00  0.00000000E+00
  0.00000000E+00  0.00000000E+00  0.00000000E+00
  0.00000000E+00  0.00000000E+00  0.00000000E+00
  0.00000000E+00  0.00000000E+00  0.00000000E+00
  0.00000000E+00  0.00000000E+00  0.00000000E+00
  0.00000000E+00  0.00000000E+00  0.00000000E+00
  0.00000000E+00  0.00000000E+00  0.00000000E+00
  0.00000000E+00  0.00000000E+00  0.00000000E+00
  0.00000000E+00  0.00000000E+00  0.00000000E+00
  0.00000000E+00  0.00000000E+00  0.00000000E+00
  0.00000000E+00  0.00000000E+00  0.00000000E+00
  0.00000000E+00  0.00000000E+00  0.00000000E+00
  0.00000000E+00  0.00000000E+00  0.00000000E+00
  0.00000000E+00  0.00000000E+00  0.00000000E+00
