Au
 1.0000000000000000
     8.3097309904120618   -0.0465876703058896    0.0465481800802935
    -0.1148977506162480    8.2297532221648222   -0.1034672520627625
     0.0964221071860800   -0.1165263158777414    8.3691057128134645
 Au 
  32
Cartesian
  0.1195732100000000  0.0130203100000000 -0.1297536000000000
 -0.0818276200000000  2.0842622000000000  1.8151896599999999
  2.1317831699999998 -0.0986351400000000  2.1006611400000001
  1.9732220300000001  2.0026179000000002  0.0273112100000000
  0.0833763200000000 -0.0949721500000000  4.2944734400000000
  0.0188782500000000  2.0430441500000001  6.0951225300000003
  2.1405282899999998 -0.0351447200000000  6.1738361599999996
  2.1832264800000001  1.8642687700000000  4.2027083400000000
 -0.3152133600000000  4.1081476700000001 -0.0218330100000000
 -0.1225624400000000  6.2122356600000002  2.0876004899999998
  2.1828149200000002  4.0272578100000000  2.1009679600000002
  2.0358009400000001  6.1712042599999997 -0.0228102300000000
  0.0859685800000000  4.1495027799999997  4.2965305799999998
 -0.0825022400000000  5.9440071400000001  6.2119354500000004
  2.1914907000000001  4.0503546100000003  6.3191218999999998
  2.0248007900000000  6.3194788400000004  4.0601014099999997
  4.0889281700000000  0.0659212900000000  0.0702914900000000
  4.2612067700000003  2.0696767399999998  2.0215779100000000
  6.1781529400000004 -0.0015890400000000  2.2032865500000001
  6.1702421400000000  1.9768186500000000  0.1482975600000000
  4.2588823099999997 -0.2065050500000000  4.2518524199999996
  4.2408431300000000  2.0065606800000002  6.2334384199999997
  6.2519902800000002 -0.2543518500000000  6.3040183499999998
  6.1891754800000003  2.0266060100000001  4.3248926200000000
  4.0436452300000001  4.1602984799999998 -0.1229916400000000
  4.0255654500000002  6.0357394700000002  1.9400602600000001
  6.1957990699999996  3.9698034500000001  2.0808405400000001
  6.2194912100000002  6.2457719300000001  0.1261698000000000
  4.1547087800000000  3.9985765600000001  4.2308479099999996
  4.2253544099999996  6.1471226000000003  6.1392331300000000
  6.2177380700000002  4.0237524200000001  5.9948950200000004
  6.1012599999999999  6.0619071599999996  4.0953291399999996
Cartesian
  0.0000000000000000  0.0000000000000000  0.0000000000000000
  0.0000000000000000  0.0000000000000000  0.0000000000000000
  0.0000000000000000  0.0000000000000000  0.0000000000000000
  0.0000000000000000  0.0000000000000000  0.0000000000000000
  0.0000000000000000  0.0000000000000000  0.0000000000000000
  0.0000000000000000  0.0000000000000000  0.0000000000000000
  0.0000000000000000  0.0000000000000000  0.0000000000000000
  0.0000000000000000  0.0000000000000000  0.0000000000000000
  0.0000000000000000  0.0000000000000000  0.0000000000000000
  0.0000000000000000  0.0000000000000000  0.0000000000000000
  0.0000000000000000  0.0000000000000000  0.0000000000000000
  0.0000000000000000  0.0000000000000000  0.0000000000000000
  0.0000000000000000  0.0000000000000000  0.0000000000000000
  0.0000000000000000  0.0000000000000000  0.0000000000000000
  0.0000000000000000  0.0000000000000000  0.0000000000000000
  0.0000000000000000  0.0000000000000000  0.0000000000000000
  0.0000000000000000  0.0000000000000000  0.0000000000000000
  0.0000000000000000  0.0000000000000000  0.0000000000000000
  0.0000000000000000  0.0000000000000000  0.0000000000000000
  0.0000000000000000  0.0000000000000000  0.0000000000000000
  0.0000000000000000  0.0000000000000000  0.0000000000000000
  0.0000000000000000  0.0000000000000000  0.0000000000000000
  0.0000000000000000  0.0000000000000000  0.0000000000000000
  0.0000000000000000  0.0000000000000000  0.0000000000000000
  0.0000000000000000  0.0000000000000000  0.0000000000000000
  0.0000000000000000  0.0000000000000000  0.0000000000000000
  0.0000000000000000  0.0000000000000000  0.0000000000000000
  0.0000000000000000  0.0000000000000000  0.0000000000000000
  0.0000000000000000  0.0000000000000000  0.0000000000000000
  0.0000000000000000  0.0000000000000000  0.0000000000000000
  0.0000000000000000  0.0000000000000000  0.0000000000000000
  0.0000000000000000  0.0000000000000000  0.0000000000000000
