Pt
 1.0000000000000000
    11.2223176341738373   -0.0096002396101975   -0.0029177644135213
     5.6084730526490860    9.7139293335826746    0.0012196821239355
     0.0056334105436559   -0.0148152997941742   14.5810976787600666
 Pt 
  48
Direct
  0.5001549880573132  0.0007699776821441  0.3442725517578632
  0.5848583096269768  0.3321313355788672  0.4999037126490072
  0.5814592389791167  0.8352939538095879  0.5008276687295814
  0.0821224407847908  0.0856386815836127  0.4998600175748923
  0.0857479116032747  0.5814894259165282  0.5000405786025143
  0.5835500084861962  0.0835325077698389  0.5001908655317355
  0.5837813634098841  0.5831390609469271  0.4996691814781523
  0.1662784514774776  0.1668175195175902  0.6559079705592662
  0.1678969472427454  0.6663813349753103  0.6585243890329893
  0.6647494525235240  0.1679399371538038  0.6564752592598520
  0.0857269610438787  0.8325273049257880  0.5011028506480756
  0.6664117427852945  0.6680787600768021  0.6567077534015312
  0.1670975602556035  0.9174337428017328  0.6572623800291194
  0.6646058557105593  0.4180758740606573  0.6566665119864277
  0.6670152704096163  0.9169884020071231  0.6579009893769017
  0.4180209027003582  0.1647588899139591  0.6571202075546348
  0.4157373629133632  0.6660470796744535  0.6570536292286058
  0.9161226664695886  0.1671015017009484  0.6577073757190310
  0.9177280971514261  0.6670949967194366  0.6568754884958136
  0.4167855122504870  0.4154284827198601  0.6569582559751532
  0.4165788982933657  0.9150604705115701  0.6567075522808606
  0.1663129629211018  0.4168046736806529  0.6570607332801141
  0.0836878298422303  0.3325534131793903  0.5006460989937774
  0.8327906237798852  0.5839617624214698  0.4999935368201477
  0.8326366029581763  0.0828398475302222  0.4996573892911379
  0.5008809103127113  0.4987617794729113  0.3422221222026222
  1.0007304926780558  0.0017443423445192  0.3419718685198403
  1.0008537381448246  0.5001594790521736  0.3427523846249669
  0.4993427970986200  0.2493721187275012  0.3424310446257633
  0.5012675685552729  0.7493784987888245  0.3414573207589632
  0.9985074757839395  0.2503637720721751  0.3426463621212816
  0.9992642511395073  0.7509959778923401  0.3420749412143330
  0.2495677927018857  0.0006984439476848  0.3418914644133042
  0.2495448100163825  0.5002961037407536  0.3434778712200307
  0.7508783250399510 -0.0016411206066393  0.3434975080783539
  0.7514450105912053  0.4993933051931825  0.3429612782656232
  0.2496249324483181  0.2496530162638549  0.3439079066542489
  0.2493319182471584  0.7514836368709522  0.3427799518770469
  0.7506090846113199  0.2501246889651368  0.3427116694474128
  0.7499085505510277  0.7501481279323138  0.3430192269753433
  0.3338824615116432  0.3337955827142393  0.4998630347615235
  0.3321712724714602  0.8327983904920052  0.5000256934585109
  0.8336890823752953  0.3339582144960863  0.4997847587351074
  0.8338589406597827  0.8335943743822781  0.5002085744484315
  0.3332157975589117  0.0832632335441788  0.5014346883615659
  0.3344657457972277  0.5814881377118647  0.5004574225021113
  0.9161759612639628  0.4176337549307870  0.6576697129709185
  0.9163275498521395  0.9177962747676955  0.6569277580630601
