Au                                      
   1.0000000000000000     
    -0.1122096983855001    6.3193657302147752    6.1563183056430013
     6.2139972738868803   -0.0605455769369430    6.2876352164744862
     6.2196224294434765    6.2040174216606889   -0.0934385035734931
   Au
    27
Direct
  0.9870696683379521  0.0133585129509086  0.9932601549127043
  0.9877346443696027  0.0174703026775518  0.3210089611678413
  0.0068217725584745  0.0033512573774246  0.6587722922596200
  0.0053236075200616  0.3231432499193687  0.9899650638945090
  0.0140357252645913  0.2967589314000776  0.3426671985243956
  0.0269906044892920  0.3030661350032275  0.6686832887448446
  0.0008359439508965  0.6824252064866059  0.0008770256299329
  0.0126194676953659  0.6691708770849019  0.3244218541533499
  0.9863330222311930  0.6638877804258101  0.6814053108354230
  0.3195802257478277  0.0123808421401108  0.0096278611946943
  0.3245382119368898  0.0118551035758685  0.3335182026088859
  0.3299290814885509  0.9904613582848540  0.6708923192159588
  0.3587688187039859  0.3307300897553702  0.9895930008727092
  0.3245611245663511  0.3470305209894704  0.3371494215765054
  0.3421875611058738  0.3400383278361332  0.6365399613472036
  0.3176505021611931  0.6656177074014025  0.0045124761373785
  0.3115322414885924  0.6701138277255723  0.3419186107032672
  0.3215026919231647  0.6518321777879379  0.6862228250512530
  0.6501265816767869  0.0111702119354220  0.9950653501524727
  0.6771899173891427  0.0139675606638008  0.3359059695652888
  0.6425569701461811  0.0107858002571248  0.6793424855532919
  0.6761085970736431  0.3314309488631011  0.0189355415658170
  0.6676885991364330  0.3342251702472225  0.3202815206456435
  0.6691978201631272  0.3114873525800377  0.6738782785168453
  0.6533886861490785  0.6639516975097379  0.0013522748653401
  0.6551804447256586  0.6636176872829935  0.3478007989955501
  0.6718926832225378  0.6484256532869921  0.6827792139575450

  0.00000000E+00  0.00000000E+00  0.00000000E+00
  0.00000000E+00  0.00000000E+00  0.00000000E+00
  0.00000000E+00  0.00000000E+00  0.00000000E+00
  0.00000000E+00  0.00000000E+00  0.00000000E+00
  0.00000000E+00  0.00000000E+00  0.00000000E+00
  0.00000000E+00  0.00000000E+00  0.00000000E+00
  0.00000000E+00  0.00000000E+00  0.00000000E+00
  0.00000000E+00  0.00000000E+00  0.00000000E+00
  0.00000000E+00  0.00000000E+00  0.00000000E+00
  0.00000000E+00  0.00000000E+00  0.00000000E+00
  0.00000000E+00  0.00000000E+00  0.00000000E+00
  0.00000000E+00  0.00000000E+00  0.00000000E+00
  0.00000000E+00  0.00000000E+00  0.00000000E+00
  0.00000000E+00  0.00000000E+00  0.00000000E+00
  0.00000000E+00  0.00000000E+00  0.00000000E+00
  0.00000000E+00  0.00000000E+00  0.00000000E+00
  0.00000000E+00  0.00000000E+00  0.00000000E+00
  0.00000000E+00  0.00000000E+00  0.00000000E+00
  0.00000000E+00  0.00000000E+00  0.00000000E+00
  0.00000000E+00  0.00000000E+00  0.00000000E+00
  0.00000000E+00  0.00000000E+00  0.00000000E+00
  0.00000000E+00  0.00000000E+00  0.00000000E+00
  0.00000000E+00  0.00000000E+00  0.00000000E+00
  0.00000000E+00  0.00000000E+00  0.00000000E+00
  0.00000000E+00  0.00000000E+00  0.00000000E+00
  0.00000000E+00  0.00000000E+00  0.00000000E+00
  0.00000000E+00  0.00000000E+00  0.00000000E+00
