Au
 1.0000000000000000
    -0.1122096983855001    6.3193657302147752    6.1563183056430013
     6.2139972738868803   -0.0605455769369430    6.2876352164744862
     6.2196224294434765    6.2040174216606889   -0.0934385035734931
 Au 
  27
Cartesian
  0.0425413800000000 -0.1243344100000000  0.0050199800000000
  2.1064912400000000  1.9129781699999999  0.0043428600000000
  4.1173741599999998  4.1299411499999996  0.0015137900000000
  1.9450004000000001 -0.0481799900000000  2.0655183500000001
  3.9737448400000002  2.1966427099999999  1.9203019900000000
  6.0391811100000004  4.3007369600000001  2.0092512899999999
  4.2459493400000001 -0.0305941100000000  4.2959051500000003
  6.1745914199999996  2.0519505300000001  4.2548783400000003
  8.3650141799999993  4.1008883200000001  4.0264764299999998
  0.1009561800000000  2.0785261400000001  2.0443842000000001
  2.1116085400000002  4.1193106200000003  2.0413376599999999
  4.0764025799999999  6.2477476899999997  1.9084857700000000
  1.9501709300000001  2.1826019300000001  4.2891776200000002
  4.2169699100000004  4.1216901699999999  4.1486001799999999
  6.0336387000000000  6.0909255399999997  4.1851751699999999
  4.1285690500000003  1.9950449699999999  6.1402973000000003
  6.2557332199999998  4.0493827600000003  6.0993745800000001
  8.2824545300000008  6.2495659000000003  6.0136362300000004
 -0.0342305000000000  4.0770966800000004  4.0730814799999999
  2.1000154100000001  6.3625315699999998  4.2254330600000003
  4.2201755700000003  8.2745520799999994  3.9601256700000000
  2.1014169900000002  4.3699872500000003  6.2444873300000001
  3.9939832900000001  6.1861647299999998  6.1820628700000002
  6.0517595300000000  8.3907991699999993  6.0153474600000001
  4.0608881300000004  4.0971922699999999  8.1970284499999995
  6.2133905499999997  6.2579079499999999  8.1735873199999993
  8.2005512800000009  8.4426504300000005  8.1496513299999993
Cartesian
  0.0000000000000000  0.0000000000000000  0.0000000000000000
  0.0000000000000000  0.0000000000000000  0.0000000000000000
  0.0000000000000000  0.0000000000000000  0.0000000000000000
  0.0000000000000000  0.0000000000000000  0.0000000000000000
  0.0000000000000000  0.0000000000000000  0.0000000000000000
  0.0000000000000000  0.0000000000000000  0.0000000000000000
  0.0000000000000000  0.0000000000000000  0.0000000000000000
  0.0000000000000000  0.0000000000000000  0.0000000000000000
  0.0000000000000000  0.0000000000000000  0.0000000000000000
  0.0000000000000000  0.0000000000000000  0.0000000000000000
  0.0000000000000000  0.0000000000000000  0.0000000000000000
  0.0000000000000000  0.0000000000000000  0.0000000000000000
  0.0000000000000000  0.0000000000000000  0.0000000000000000
  0.0000000000000000  0.0000000000000000  0.0000000000000000
  0.0000000000000000  0.0000000000000000  0.0000000000000000
  0.0000000000000000  0.0000000000000000  0.0000000000000000
  0.0000000000000000  0.0000000000000000  0.0000000000000000
  0.0000000000000000  0.0000000000000000  0.0000000000000000
  0.0000000000000000  0.0000000000000000  0.0000000000000000
  0.0000000000000000  0.0000000000000000  0.0000000000000000
  0.0000000000000000  0.0000000000000000  0.0000000000000000
  0.0000000000000000  0.0000000000000000  0.0000000000000000
  0.0000000000000000  0.0000000000000000  0.0000000000000000
  0.0000000000000000  0.0000000000000000  0.0000000000000000
  0.0000000000000000  0.0000000000000000  0.0000000000000000
  0.0000000000000000  0.0000000000000000  0.0000000000000000
  0.0000000000000000  0.0000000000000000  0.0000000000000000
