Pt
 1.0000000000000000
     7.9587637422584807   -0.0359569767750069    0.0513495650724589
    -0.0797000852174209    7.9951406856314549   -0.0685279292645232
    -0.1396979294813748   -0.0858653787754355    7.9110187690567644
 Pt 
  32
Direct
  0.1309650763903323  0.1251969795173426  0.1169007414900163
  0.6385452583532947  0.8644386614557529  0.8837338924660151
  0.6104549334684457  0.6238400906602440  0.6182526305468943
  0.8629290332402686  0.8651086679040944  0.0898088281415724
  0.8586702695294380  0.5936431719110457  0.3844706682164459
  0.6288201454511060  0.8980049223425799  0.3865376200067299
  0.6118805218660059  0.6231705818292206  0.1261625967544250
  0.8685091678242360  0.3809369885179916  0.6231241549136075
  0.8854234491369591  0.1253618233037456  0.8547044754322939
  0.6128214078625358  0.3802980529058523  0.8779142583346716
  0.6291982370641213  0.1262701340224963  0.6236837275994981
  0.8667248488656036  0.3745933337684632  0.1410957278749817
  0.8462331369121819  0.1077336936611853  0.3723671008000284
  0.6207206117829909  0.3606714205451343  0.3822496609382759
  0.6163802046908465  0.1263637976585948  0.1325656662653118
  0.3691753625793236  0.8943997504161630  0.6372207822644138
  0.3612856311283160  0.6226084610333239  0.8696414089499240
  0.1191865380970812  0.8600170815195659  0.8700639568392219
  0.1173375873987483  0.6188100270399692  0.6138363297374136
  0.3541084686407293  0.8867249779754253  0.1006056051627223
  0.3707201202420520  0.6157828079971156  0.3754771415015693
  0.1271962569792644  0.8647167324094834  0.3697828674152507
  0.0947297341991776  0.6235196787376920  0.1237324876054777
  0.3830484010945829  0.3803931954263423  0.6063521942273067
  0.3867803029817096  0.1224654252947948  0.8844558199044064
  0.1266907070286286  0.3651530185932679  0.8772797802819177
  0.1293180597104616  0.1380796392105449  0.6139081384338069
  0.3713179695155340  0.3803719108080065  0.1451019997133336
  0.3601610816743160  0.1170406395353190  0.3720433756622314
  0.1143529328595101  0.3920837520394617  0.3895043943405823
  0.8659576819763802  0.6110553275577911  0.8793519733682019
  0.8714632109901701  0.8748064029425724  0.6072227540692285
