Pt
 1.0000000000000000
     8.0010068278419002    0.0295832153209688    0.0158118788339843
    -0.0033706771666351    7.9438583835541943    0.0187131330152411
    -0.0801861504706115    0.0078936044314680    8.0164306955804481
 Pt 
  32
Direct
  0.1306714146421356  0.1310836627804295  0.1255023465694704
  0.6228631881837210  0.8815285128170289  0.8792456431148453
  0.6197916192770316  0.6101902077823903  0.6218266269349823
  0.8776653239785197  0.8774842870033839  0.1288318918079543
  0.8692635850772199  0.6425384719035135  0.3688291490196359
  0.6301628718594746  0.8839109686853653  0.3733284576568207
  0.6361311173130719  0.6156622049511569  0.1171540775166409
  0.8814646813332769  0.3791822990983135  0.6278772884841637
  0.8764585178419519  0.1244733681323813  0.8719869406807128
  0.6357070075876466  0.3687068147430720  0.8656250009096781
  0.6239062908765207  0.1308699831552261  0.6430994937391058
  0.8899868049775501  0.3701909685534145  0.1277831521957788
  0.8769442174263465  0.1140327898025888  0.3736261607273019
  0.6310567307978846  0.3660566321743445  0.3775824498370589
  0.6235280298825351  0.1099929031947480  0.1245856524480779
  0.3813768488323374  0.8857131171144353  0.6332830321730465
  0.3836262904246032  0.6148347447515232  0.8694278149326270
  0.1186518643850821  0.8781075374878353  0.8727018274857876
  0.1246142460663728  0.6262263229748877  0.6288627968729310
  0.3720463858187749  0.8885359811549107  0.1278919764363281
  0.3824994029767796  0.6319067717170401  0.3762275774399752
  0.1203696320486120  0.8787478730683005  0.3818915400609599
  0.1281298920742112  0.6404214844364160  0.1164066014768767
  0.3636859632307382  0.3745017467939465  0.6318354256347540
  0.3733673636556554  0.1322243852548643  0.8734174140414254
  0.1309070161249271  0.3793464527750686  0.8677113814914872
  0.1175872782554010  0.1158757702778565  0.6165042976328640
  0.3755047102878746  0.3715676156232182  0.1175641475106378
  0.3868354577425374  0.1217281680982884  0.3634213903724411
  0.1262880813709252  0.3773157227726054  0.3825457594913010
  0.8668430371918396  0.6312693912662364  0.8751552918318647
  0.8760470924646390  0.8819662526139321  0.6270114541739975
