Pt
 1.0000000000000000
    19.9354000000000013    0.0000000000000000    0.0000000000000000
     0.0000000000000000   19.9354000000000013    0.0000000000000000
     0.0000000000000000    0.0000000000000000   19.9354000000000013
 Pt 
  43
Direct
  0.3004090873521474  0.4060909592985342  0.3980131976283395
  0.5928825681952706  0.4048495354996638  0.4985624858292284
  0.6021464219428754  0.4055421486401075  0.6909517772404867
  0.4994657543866688  0.5049777340810818  0.2990126368169186
  0.5019484570161622  0.5999489486039907  0.4032844818764609
  0.6018468252455430  0.4978328310442729  0.4075747379034280
  0.6019222313071220  0.6004190234457297  0.2997471663473018
  0.5002444139570813  0.4957066830863689  0.4983033909527774
  0.4999835057234868  0.6025340529911615  0.6019109935090341
  0.6034801824894408  0.3029383609057255  0.5909165278850687
  0.6037231036247077  0.4994733564413054  0.5962355187254833
  0.4995938125144215  0.4980607662750685  0.7039861903949757
  0.5961869985051717  0.5989521389086749  0.7031007263460978
  0.5952446823239061  0.7016950439920944  0.3957341342536392
  0.5027034747233564  0.6988926878818583  0.5005953961294982
  0.6005047252625981  0.6986632447806413  0.6000841788978399
  0.7016555133079847  0.4050264534446261  0.3984958521022903
  0.7026809469586764  0.4059188784774822  0.5983699273653902
  0.6973059923553075  0.6005923297250116  0.3928374670184696
  0.5991839386217482  0.5963225699007795  0.5004525442178235
  0.6984210810919269  0.5016404586815413  0.4990756348004053
  0.5001994426999207  0.4040094329684882  0.5935652788506877
  0.5969779312178336  0.4069127687430400  0.2938229039798549
  0.4026099521454297  0.3008083339185569  0.4000661346148058
  0.4025180553186793  0.3978008397122706  0.3053803274576883
  0.2971699238540486  0.3990324402821112  0.5950837715822105
  0.3992576065692185  0.2977035459534296  0.6002208247639876
  0.4030627215907380  0.4002829935692286  0.5074738961846764
  0.4004550688724580  0.4027424295474382  0.7018721194458099
  0.2982541273312800  0.5964416324728874  0.3990561759483130
  0.3988488161762492  0.5014432888228979  0.4020100148479588
  0.4995061794596546  0.2981606243165424  0.5044324728874263
  0.4008268070868906  0.6007399074009049  0.2993064097033418
  0.2961849323314305  0.6026665700211683  0.6005376751908664
  0.4021666763646578  0.5009004464420076  0.6073632362530974
  0.4017367451869538  0.5936638457216810  0.4967481329694914
  0.4018262492851912  0.6002531727479760  0.7000828706722713
  0.4020400909939103  0.6968226290919670  0.4019472064769204
  0.3986827151699990  0.7007849308265697  0.5963524228257271
  0.4961235009079326  0.4035992811782056  0.4008325636806886
  0.5993714181807237  0.3001806404687139  0.4007297917272791
  0.3020474718340239  0.4975463527192832  0.5007764760175366
  0.6984760697051475  0.5954636796853837  0.6008068591550708
