Pt                                      
   1.0000000000000000     
    19.9354000000000013    0.0000000000000000    0.0000000000000000
     0.0000000000000000   19.9354000000000013    0.0000000000000000
     0.0000000000000000    0.0000000000000000   19.9354000000000013
   Pt
    43
Direct
     0.3096586421383137    0.4069103678306225    0.4069103678306225
     0.5969759494183211    0.4030240505816789    0.5000000000000000
     0.5930896321693775    0.4069103678306225    0.6903413578616863
     0.5000000000000000    0.5000000000000000    0.2900118382051304
     0.5000000000000000    0.5969759494183211    0.4030240505816789
     0.5969759494183211    0.5000000000000000    0.4030240505816789
     0.5930896321693775    0.5930896321693775    0.3096586421383137
     0.5000000000000000    0.5000000000000000    0.5000000000000000
     0.5000000000000000    0.5969759494183211    0.5969759494183212
     0.5930896321693775    0.3096586421383137    0.5930896321693775
     0.5969759494183211    0.5000000000000000    0.5969759494183211
     0.5000000000000000    0.5000000000000000    0.7099881617948699
     0.5930896321693775    0.5930896321693775    0.6903413578616863
     0.5930896321693775    0.6903413578616863    0.4069103678306225
     0.5000000000000000    0.7099881617948699    0.5000000000000000
     0.5930896321693775    0.6903413578616863    0.5930896321693775
     0.6903413578616863    0.4069103678306225    0.4069103678306225
     0.6903413578616863    0.4069103678306225    0.5930896321693775
     0.6903413578616863    0.5930896321693775    0.4069103678306225
     0.5969759494183212    0.5969759494183211    0.5000000000000000
     0.7099881617948699    0.5000000000000000    0.5000000000000000
     0.5000000000000000    0.4030240505816789    0.5969759494183211
     0.5930896321693775    0.4069103678306225    0.3096586421383137
     0.4069103678306225    0.3096586421383137    0.4069103678306225
     0.4069103678306225    0.4069103678306225    0.3096586421383137
     0.3096586421383137    0.4069103678306225    0.5930896321693775
     0.4069103678306225    0.3096586421383137    0.5930896321693775
     0.4030240505816789    0.4030240505816789    0.5000000000000000
     0.4069103678306225    0.4069103678306225    0.6903413578616863
     0.3096586421383137    0.5930896321693775    0.4069103678306225
     0.4030240505816789    0.5000000000000000    0.4030240505816789
     0.5000000000000000    0.2900118382051304    0.5000000000000000
     0.4069103678306225    0.5930896321693775    0.3096586421383137
     0.3096586421383137    0.5930896321693775    0.5930896321693775
     0.4030240505816789    0.5000000000000000    0.5969759494183212
     0.4030240505816789    0.5969759494183211    0.5000000000000000
     0.4069103678306225    0.5930896321693775    0.6903413578616863
     0.4069103678306225    0.6903413578616863    0.4069103678306225
     0.4069103678306225    0.6903413578616863    0.5930896321693775
     0.5000000000000000    0.4030240505816789    0.4030240505816789
     0.5930896321693775    0.3096586421383137    0.4069103678306225
     0.2900118382051304    0.5000000000000000    0.5000000000000000
     0.6903413578616863    0.5930896321693775    0.5930896321693775

  0.00000000E+00  0.00000000E+00  0.00000000E+00
  0.00000000E+00  0.00000000E+00  0.00000000E+00
  0.00000000E+00  0.00000000E+00  0.00000000E+00
  0.00000000E+00  0.00000000E+00  0.00000000E+00
  0.00000000E+00  0.00000000E+00  0.00000000E+00
  0.00000000E+00  0.00000000E+00  0.00000000E+00
  0.00000000E+00  0.00000000E+00  0.00000000E+00
  0.00000000E+00  0.00000000E+00  0.00000000E+00
  0.00000000E+00  0.00000000E+00  0.00000000E+00
  0.00000000E+00  0.00000000E+00  0.00000000E+00
  0.00000000E+00  0.00000000E+00  0.00000000E+00
  0.00000000E+00  0.00000000E+00  0.00000000E+00
  0.00000000E+00  0.00000000E+00  0.00000000E+00
  0.00000000E+00  0.00000000E+00  0.00000000E+00
  0.00000000E+00  0.00000000E+00  0.00000000E+00
  0.00000000E+00  0.00000000E+00  0.00000000E+00
  0.00000000E+00  0.00000000E+00  0.00000000E+00
  0.00000000E+00  0.00000000E+00  0.00000000E+00
  0.00000000E+00  0.00000000E+00  0.00000000E+00
  0.00000000E+00  0.00000000E+00  0.00000000E+00
  0.00000000E+00  0.00000000E+00  0.00000000E+00
  0.00000000E+00  0.00000000E+00  0.00000000E+00
  0.00000000E+00  0.00000000E+00  0.00000000E+00
  0.00000000E+00  0.00000000E+00  0.00000000E+00
  0.00000000E+00  0.00000000E+00  0.00000000E+00
  0.00000000E+00  0.00000000E+00  0.00000000E+00
  0.00000000E+00  0.00000000E+00  0.00000000E+00
  0.00000000E+00  0.00000000E+00  0.00000000E+00
  0.00000000E+00  0.00000000E+00  0.00000000E+00
  0.00000000E+00  0.00000000E+00  0.00000000E+00
  0.00000000E+00  0.00000000E+00  0.00000000E+00
  0.00000000E+00  0.00000000E+00  0.00000000E+00
  0.00000000E+00  0.00000000E+00  0.00000000E+00
  0.00000000E+00  0.00000000E+00  0.00000000E+00
  0.00000000E+00  0.00000000E+00  0.00000000E+00
  0.00000000E+00  0.00000000E+00  0.00000000E+00
  0.00000000E+00  0.00000000E+00  0.00000000E+00
  0.00000000E+00  0.00000000E+00  0.00000000E+00
  0.00000000E+00  0.00000000E+00  0.00000000E+00
  0.00000000E+00  0.00000000E+00  0.00000000E+00
  0.00000000E+00  0.00000000E+00  0.00000000E+00
  0.00000000E+00  0.00000000E+00  0.00000000E+00
  0.00000000E+00  0.00000000E+00  0.00000000E+00
