Pt
 1.0000000000000000
     7.9914512484370110   -0.0221595721782897   -0.0430440850414775
    -0.0797616297840876    7.8716962653816056    0.0317961448803582
     0.0174553894946692   -0.1251109531351769   15.9169523767982195
 Pt 
  32
Direct
  0.1328820033421793  0.1311149238254784  0.3110769032868346
  0.3766810445918705  0.8770672929940776  0.5629311598154976
  0.3720032763598026  0.3780980781485841  0.5619457329299851
  0.8692365943673415  0.6346140871617185  0.6916440699086326
  0.8651751740948165  0.1332552143017893  0.6907796550108944
  0.3738066458684212  0.6226693278596774  0.6840359311977021
  0.3739223138382801  0.1331188989808441  0.6890404021101688
  0.6313338489797443  0.8756538080186539  0.6919879529573515
  0.6161900154598317  0.3840226604263711  0.6825711309607090
  0.1232570711379966  0.8586489491129372  0.6817364099978187
  0.1354619778117015  0.3890153674426936  0.6865356984945040
  0.6126695331128545  0.6288968793861841  0.5575306580755729
  0.6255077202323261  0.1288572553138386  0.5589513163659147
  0.1193463364273532  0.6201450244945114  0.5645642350421178
  0.1149219809382566  0.1378696779025323  0.5609970587261148
  0.8683792153829692  0.8822524765913284  0.3172143782115213
  0.8778502436864555  0.3774844678627403  0.3111549317023793
  0.3779338068288871  0.8681709828915971  0.3130689303206061
  0.3777137246264322  0.3776865693008929  0.3136916594715394
  0.8799391839031140  0.6239623770110377  0.4345377893450237
  0.8805068235407378  0.1309645793521182  0.4343170946424231
  0.3658693450289162  0.6171242372081931  0.4404479685297809
  0.3699929006102628  0.1199738471335925  0.4374226130249834
  0.6212614401378945  0.8693601692750944  0.4401478739472147
  0.6285864842660179  0.3628011049015525  0.4388657714257495
  0.1270380494716056  0.8771480233379882  0.4371685236123766
  0.1305393441358593  0.3708984340292812  0.4314408979633656
  0.6258871220452596  0.6315707739218275  0.3133119088769317
  0.6264254996184024  0.1272718641155479  0.3118246276267058
  0.1370794300647759  0.6255056007529494  0.3063376861670900
  0.8829589354681724  0.3868788235733142  0.5589132419186431
  0.8795623938524417  0.8698366847048946  0.5655044930807140
