Pt
 1.0000000000000000
    21.5463013567337569    0.0000000000000000    0.0000000000000000
     0.0000000000000000   21.5463013567337569    0.0000000000000000
     0.0000000000000000    0.0000000000000000   21.5463013567337569
 Pt 
  55
Direct
  0.5002237080765426  0.4990261925692262  0.5027195851697678
  0.4964662803556730  0.4979766258883568  0.2773045884338148
  0.5064481694251297  0.6495056496379313  0.2800980739143838
  0.6129266314133633  0.4368744883008978  0.6864721269378080
  0.6116656043094465  0.5649915569474518  0.6808418413499715
  0.6101883205996811  0.4372138356384730  0.3223195821416272
  0.6105059704778055  0.5688633161240648  0.3251545489876149
  0.3895251705173534  0.4337870897307850  0.6754728265903294
  0.3887133620445023  0.5647569435947328  0.6735765303618712
  0.3929091865854853  0.4358007002935297  0.3160863893640637
  0.3986469630118493  0.5671574660391028  0.3198609722334610
  0.6872549712747887  0.6080536349643840  0.4280372267752443
  0.5074452106176909  0.3673381235581036  0.2811994188555462
  0.6734619733453728  0.6121326078955099  0.5592823334494915
  0.3210854742750495  0.6139537812537735  0.5658208417376424
  0.6827968933703887  0.3882628160394467  0.4303990548754577
  0.6862470651084149  0.3868590321834975  0.5713846500226563
  0.3192297580972237  0.3888932416412754  0.4346985190139303
  0.3224858556908868  0.3913325517172747  0.5704533096655453
  0.4279975299388435  0.6712008460551999  0.6110877120859114
  0.5650101898438062  0.6750292915333479  0.6062339110428235
  0.4310557889369432  0.3221048065324226  0.6077267111047677
  0.5658611948351696  0.3255286475331864  0.6127110723750344
  0.4280967455751890  0.6717994801217363  0.3918293775911343
  0.5737965632851503  0.6808024239118722  0.3832221801455253
  0.3171341237118869  0.6145302690599332  0.4295016266032054
  0.4310037229242468  0.3225541982790470  0.3884667535936120
  0.4975284009313165  0.6351091574110621  0.7214374329328693
  0.5004021516959993  0.3612503933333981  0.7221341093485321
  0.6084819734456481  0.4930059249672668  0.4291150052586842
  0.6069507059926526  0.5009892872693188  0.5655171645592874
  0.3855126020227157  0.5000840270264091  0.4292468608357952
  0.3848201954814261  0.5032147202661990  0.5729568070921763
  0.4294342029662689  0.6092360908104330  0.5025045296981451
  0.5695174218922269  0.6178912886057480  0.4955629355227133
  0.4357949197190386  0.3867605503157807  0.4967431849575915
  0.5705287170393261  0.3904786548142571  0.4985785305858397
  0.4933158213104696  0.4278412033404063  0.6133914982057731
  0.5005865002732440  0.5619510610908613  0.6121223889722547
  0.5000502509277669  0.4355597457132496  0.3882938014038926
  0.5045084026267350  0.4973618981083678  0.7239046062597376
  0.5014914927207718  0.5607446712066004  0.3879711214281098
  0.7185356713281816  0.4976750725083856  0.5061552695025160
  0.7270817385603867  0.4977136791344709  0.6382128938200538
  0.2845092272917730  0.4979630611472367  0.3650654522912694
  0.2768073977641665  0.5009519258685533  0.5038855077837736
  0.2729928117412937  0.5010932536050212  0.6342077312368696
  0.3580940831679532  0.7225627536827539  0.5026333063245396
  0.4993885675249427  0.7194402669558627  0.4970219905818394
  0.6403447631947315  0.7221105521731451  0.5031092330198095
  0.3573223330784742  0.2811066349495338  0.5001129285065142
  0.5022827965142960  0.2840580347720432  0.4980413627532556
  0.6382680295011310  0.2727523908953103  0.4936270640564505
  0.7292394615602775  0.5036821861125751  0.3666265127927038
  0.5658476198834804  0.3208479165654800  0.3866490676088312
