Pt
 1.0000000000000000
    11.2210511191581084   -0.0093175340611779    0.0093096360160587
     5.5882172088554602    9.7015399253681842   -0.0206934504125525
     0.0192844214372160   -0.0233052631755483   14.5920555142998261
 Pt 
  48
Direct
  0.5020017836528053  0.0002660659375175  0.3411203957563829
  0.5841081152978803  0.3316643932333459  0.5000709680398767
  0.5835212594276031  0.8355737318057939  0.5023174552666141
  0.0838486571624329  0.0826200487386655  0.5010232524292753
  0.0839619397741721  0.5850937298562245  0.4988607921518222
  0.5824993717358571  0.0839672367357587  0.4963677857188287
  0.5818535722755070  0.5829757184483688  0.4993626324274951
  0.1693582639752008  0.1659803780697985  0.6566848511190658
  0.1646314399925617  0.6679852947433343  0.6588871082876560
  0.6642341452149113  0.1671096290374350  0.6596571612044360
  0.0830030252195068  0.8315950103037139  0.4986560587728937
  0.6659303971703566  0.6670577989316325  0.6568374529881792
  0.1630886107865995  0.9171915734992041  0.6556088087360371
  0.6694735580892025  0.4113861944966202  0.6541560101189118
  0.6652983876699188  0.9178731550432141  0.6555810836528773
  0.4175901485219241  0.1650643163086395  0.6568054766900784
  0.4172842851609064  0.6666168314960369  0.6589912770077668
  0.9173572484689385  0.1687179355705293  0.6579595578391811
  0.9154726259638407  0.6665915676627070  0.6555652302203756
  0.4160179104999795  0.4176955438240471  0.6562283331033658
  0.4188642320654214  0.9175642698636249  0.6566832697276694
  0.1691382987633075  0.4152318568700512  0.6556315513237031
  0.0816740126333854  0.3347452283321695  0.4987073953578586
  0.8315726463634799  0.5846217805996257  0.5018024976668087
  0.8337508599206368  0.0806119148997327  0.4998900349907086
  0.4980603407409313  0.5011434102761005  0.3394593264101542
  1.0011326636255304 -0.0011917561029475  0.3428527209788439
  0.9990965815460091  0.4991104644087940  0.3434683891666263
  0.5009987875369708  0.2492478082264105  0.3444045875427619
  0.4988168198996368  0.7514986677262399  0.3407666344546754
  0.9991846025320739  0.2513127022307795  0.3413309610217876
  1.0028011516712798  0.7474627148667032  0.3433382002965316
  0.2454757428515646 -0.0001420733076582  0.3433122156975780
  0.2482107616331150  0.5014242239010129  0.3439023810284392
  0.7529501369838334 -0.0009611943122088  0.3435651593393872
  0.7506836690194033  0.5002192855167310  0.3434910459562473
  0.2507363618754544  0.2519210431799164  0.3451458066626971
  0.2502225916579685  0.7470956591185095  0.3430696073502624
  0.7514095637249427  0.2507156988153115  0.3440290594031981
  0.7475134115604154  0.7544707467288053  0.3421059946156557
  0.3312412598130925  0.3351720766683923  0.5006483667792153
  0.3346492552767416  0.8346654211138053  0.4990675856192187
  0.8312950495797501  0.3346219999343599  0.5010461474919815
  0.8332027144500004  0.8323961062027769  0.5019073711973615
  0.3356079619404267  0.0807611152654756  0.5005983181057517
  0.3334762949165854  0.5845651513707821  0.4994424726458312
  0.9196962188237564  0.4174739820067194  0.6568449058263126
  0.9173484353881877  0.9191662639573154  0.6573807995775712
