Pt
 1.0000000000000000
    11.1859228075009511    0.0319956590385456   -0.0028147720095859
     5.6273129270540947    9.7447362886191176   -0.0011927649519913
     0.0416544923513940   -0.0255286457644364   14.5749844737408178
 Pt 
  48
Direct
  0.5006999254375069  0.0012913590079053  0.3453887512190983
  0.5854360846526022  0.3355905916034748  0.4992571712793553
  0.5865850715154162  0.8336139714111250  0.4970429678207256
  0.0885933295970040  0.0798142458074623  0.4982316552544265
  0.0852781405533352  0.5826696792942320  0.4993558421696974
  0.5806469324921784  0.0819420058813938  0.5011734530109550
  0.5822588906560582  0.5855153231353853  0.5002158733904177
  0.1643550802467900  0.1659073605324887  0.6554991593834837
  0.1707004405555040  0.6660134872910022  0.6598897396903207
  0.6697857274724225  0.1698232265777023  0.6569907625330816
  0.0807361096269862  0.8398545663270669  0.4992542418102080
  0.6626104339695242  0.6703419131731529  0.6591025139649496
  0.1711144128549936  0.9110315302394069  0.6562166033021085
  0.6669654968448974  0.4160358025474464  0.6578943995454472
  0.6715404761752288  0.9089295244911669  0.6553744122215622
  0.4160963061594485  0.1700173604024446  0.6613483262607280
  0.4165361874787312  0.6693266339287237  0.6554075986127016
  0.9156810595295186  0.1674845285451359  0.6568304570299578
  0.9131266703410591  0.6663214128969771  0.6567673780693983
  0.4196635386096875  0.4120878701964629  0.6583343452912732
  0.4197647114368497  0.9139219233766247  0.6585053681045929
  0.1664673109988966  0.4178372485391360  0.6545913188684515
  0.0834767481557046  0.3328464466200565  0.5015244680884364
  0.8346625768674387  0.5829583910883035  0.5043541178681941
  0.8351387240095162  0.0852077236939731  0.4972293137565779
  0.5026960898126021  0.4982820910745919  0.3449923522976363
  1.0050555801274799  0.0003060412110265  0.3445324375060153
  1.0024974157060582  0.4977299426092632  0.3456540256062093
  0.4986697087076399  0.2502409356092695  0.3440766965612087
  0.4982370381706653  0.7515558295904204  0.3419577367030279
  1.0010984824654756  0.2543508018603516  0.3388865479485166
  0.9982161939378971  0.7513208760734339  0.3404826303006831
  0.2521629366010634  0.0004119329060689  0.3416815353379765
  0.2551875251440980  0.4975100097768379  0.3398812984076177
  0.7491007626912474  0.0008223795300304  0.3460960804351362
  0.7501572936665539  0.5024199443758323  0.3460395494582205
  0.2534111168565310  0.2491864815659347  0.3463448598875080
  0.2559190052020112  0.7498984805442634  0.3433336594830251
  0.7520852032639647  0.2506777296577899  0.3465859786739544
  0.7504458998235480  0.7483992817393150  0.3412515634241582
  0.3339719388032259  0.3338046113399978  0.4975513324471694
  0.3299884788551800  0.8339558237112784  0.5036227694675436
  0.8400177197561368  0.3361040395446994  0.4980973753051571
  0.8301876971496582  0.8366867668177551  0.5008229355506412
  0.3302563946512235  0.0846076252272024  0.5008842600565718
  0.3300710092147092  0.5891313371807457  0.4983472203991169
  0.9171569860873252  0.4149167604405456  0.6560075527496378
  0.9218066072447718  0.9134112450454196  0.6568842737092044
