Pt
 1.0000000000000000
    19.9354000000000013    0.0000000000000000    0.0000000000000000
     0.0000000000000000   19.9354000000000013    0.0000000000000000
     0.0000000000000000    0.0000000000000000   19.9354000000000013
 Pt 
  43
Direct
  0.3009683337179088  0.4000045025432146  0.4003397092609127
  0.5994284488899143  0.4004509029164200  0.5010493689617465
  0.5996324197156816  0.3995860760255625  0.6993621477371910
  0.4994688564061919  0.4997601287157519  0.3007216203336777
  0.4998712857529821  0.5998204109272951  0.4004814606177954
  0.5994942539402268  0.4996193173951864  0.4009585385796121
  0.6006349343379114  0.5991192040290136  0.3017783846825245
  0.5005202729817309  0.4994136390541449  0.4999292770649196
  0.4994968282552644  0.6004695697101637  0.6001196956168423
  0.5998833105932161  0.3010989295424220  0.5996664240496804
  0.5994808065050111  0.5011240150686718  0.5994118623152783
  0.5001780621407144  0.5000968056823539  0.6991674428403744
  0.5997113927987399  0.5994192968287568  0.6987858161862817
  0.5993374936043420  0.6991024393791947  0.3996140533924576
  0.5006126965097264  0.6988871755771140  0.5010414137664656
  0.5987927004223642  0.6996496744484685  0.5990571300299968
  0.6992815112814390  0.4011745558152833  0.4001990855463146
  0.6988675627276101  0.4005535163578358  0.5994850582381090
  0.6994862736639343  0.5998873757235871  0.4006046098899445
  0.6003544393390651  0.5986142555454116  0.5000292138607703
  0.6982640925188358  0.5006879796743481  0.4996831154629452
  0.5003760019864161  0.4007905444586012  0.5993564849463767
  0.5999530598834234  0.4007111480080660  0.3008719087653119
  0.4003494432015409  0.3007239112332835  0.4005472516227414
  0.4007686532499974  0.3997429045817992  0.3009508066053352
  0.3012763957582993  0.4008601623243075  0.6005180748818684
  0.4006334214512876  0.3003688709531788  0.5990181255455119
  0.4013877674889894  0.4013363739879811  0.4993213599927766
  0.4010114931227866  0.4005634775324297  0.6989199885630586
  0.3004254025502372  0.5992086464279622  0.4001433374800605
  0.4010243717206577  0.4996976223200938  0.3994308576702750
  0.4991953469707153  0.3007120183191709  0.5000189301443663
  0.3997481465132377  0.5996920924586413  0.3007870772595483
  0.3009250458982513  0.5998552183552875  0.5987765873772284
  0.4003132949426648  0.5001440718520822  0.5999368916600619
  0.4005189777982884  0.5987133932602305  0.5004370110456775
  0.4011288501861011  0.5992175637308506  0.6990726431373335
  0.4001775991452391  0.6988582165394223  0.4012235159565396
  0.4005273453254010  0.6997512028853196  0.5994265256779396
  0.5003779001173790  0.4005466732546124  0.4003484519999598
  0.5995041569268738  0.3010442740050362  0.4005735094354765
  0.3008379295123247  0.5004862776768962  0.4993969180452862
  0.6993148419394644  0.5996699394042758  0.6000995440272078
