Pt
 1.0000000000000000
    19.9354000000000013    0.0000000000000000    0.0000000000000000
     0.0000000000000000   19.9354000000000013    0.0000000000000000
     0.0000000000000000    0.0000000000000000   19.9354000000000013
 Pt 
  38
Direct
  0.3004090873521474  0.4060909592985342  0.4975271276222197
  0.5001994426999207  0.7025512229501288  0.3945374188629272
  0.4044523225016803  0.6014801508873662  0.5909165278850687
  0.4933686382013905  0.6038773954874244  0.6975903458169888
  0.5026324919489952  0.7040839386217482  0.5914378472466064
  0.5989796843805490  0.3059498740933214  0.4980404968046790
  0.6014623870100424  0.5004350186101106  0.3037705518825807
  0.6018468252455430  0.3983189010503927  0.4075747379034280
  0.6019222313071220  0.5009050934518494  0.4987750263350622
  0.6992722739448417  0.3961927530924887  0.4983033909527774
  0.6990113657112472  0.5030201229972812  0.4028831335212736
  0.6037231036247077  0.3999594264474252  0.5962355187254833
  0.5991839386217482  0.4968086399068992  0.6994804042055840
  0.6986216725021820  0.4980607662750685  0.6044722604010955
  0.5961869985051717  0.5989521389086749  0.4045589363644572
  0.5952446823239061  0.7016950439920944  0.4952480642475194
  0.4995061794596546  0.5967024142981830  0.5044324728874263
  0.3979500712300731  0.7054545587246807  0.4928507639676153
  0.4003435581929632  0.5987224304503546  0.4007297917272791
  0.4961235009079326  0.6026271411659659  0.3013186336868083
  0.3030960221515495  0.4998361939063173  0.4000661346148058
  0.3030041253247991  0.4973147697061508  0.6039221174393290
  0.2971699238540486  0.5980603002698717  0.4955698415883303
  0.3992576065692185  0.2977035459534296  0.5007068947701074
  0.5025766515846183  0.3007690635753483  0.4079599661907962
  0.4999689988663382  0.3032284995535580  0.6023581894519296
  0.3977680573251602  0.4969277024790071  0.2995422459544328
  0.7017313347111168  0.5993787578879780  0.5005953961294982
  0.4983627461701295  0.4019293588290177  0.3024960848540786
  0.4015614018279041  0.4975463527192832  0.5007764760175366
  0.4952127923191909  0.4036387100334078  0.5010237451969862
  0.5016806063585381  0.5009004464420076  0.4083353762653369
  0.4017367451869538  0.3946359857339205  0.5962620629633717
  0.4018262492851912  0.5007392427540956  0.7000828706722713
  0.5015540209877904  0.3982808391103263  0.7004889964585610
  0.4981966451638792  0.5017570708388094  0.5963524228257271
  0.4008268070868906  0.4017120474131444  0.3988203396972220
  0.6005047252625981  0.5991493147867611  0.6000841788978399
