Pt
 1.0000000000000000
     7.7888373583713975    0.1427245437410105   -0.0132917600243465
     0.0141591223506458    7.8707330351697857   -0.0396359055166254
     0.0708582134019466   -0.1078183941090835    7.9569505714871314
 Pt 
  32
Direct
  0.1162060693302462  0.1283443268812353  0.1168018851507167
  0.6306224804391812  0.8913314714325413  0.8745771448673257
  0.6280342055391255  0.6366946177990934  0.6239484238411251
  0.8679378620549333  0.8819632389601416  0.1253539913847450
  0.8789357765869260  0.6179896949486834  0.3730917664885788
  0.6232535939364897  0.8828491543321541  0.3647158653053034
  0.6215061831729105  0.6344606983204604  0.1158638497311564
  0.8720846301430268  0.3463107532211577  0.6338535026209449
  0.8776190489679879  0.1101991690798616  0.8870483525356601
  0.6249689377439422  0.3692258343221722  0.8800514876288721
  0.6406825855117192  0.1114485555225226  0.6250731883917545
  0.8868020721362666  0.3671694331330737  0.1227156841706621
  0.8651190721874965  0.1142252459855482  0.3865221906968173
  0.6169113712814678  0.3846199420541732  0.3759206231976617
  0.6320509344927966  0.1394850046279965  0.1265153798260580
  0.3740331019707218  0.8716372349561728  0.6293248405068531
  0.3969561322129114  0.6386735055831759  0.8934380142874475
  0.1351299855530294  0.8713345391251535  0.8675644641482321
  0.1251882959630367  0.6021369193668953  0.6194380460893966
  0.3879043003784214  0.8827834067996900  0.1528821424297529
  0.3697310794549101  0.6192740805902214  0.3610903674611916
  0.1164513312881359  0.8755170485506415  0.4038138424132527
  0.1245797377098758  0.6439672835403764  0.1308385129492096
  0.3574790555637943  0.3449212798798320  0.6219329061579654
  0.3710092553073057  0.1312981191061741  0.8664907408797908
  0.1115551466802784  0.3894231888470299  0.8694134735168209
  0.1196588013610485  0.1456483243077983  0.6236717401608703
  0.3669955947837954  0.3761765743915981  0.1257017418356385
  0.3822581327858829  0.0960222510499253  0.3529613973351041
  0.1388288044574049  0.3795924984160333  0.3852705774672677
  0.8691292443311684  0.6227630509604872  0.8848571147372363
  0.8737257426750403  0.8647143649544519  0.6256714057778140
