Pt
 1.0000000000000000
    21.5463013567337569    0.0000000000000000    0.0000000000000000
     0.0000000000000000   21.5463013567337569    0.0000000000000000
     0.0000000000000000    0.0000000000000000   21.5463013567337569
 Pt 
  55
Direct
  0.4985868169268243  0.4955109395916507  0.5009054227595784
  0.4995940436262327  0.5015232642990424  0.2759516374322784
  0.5021279945394801  0.6381261179057544  0.2791596850157397
  0.6099508626752193  0.4263649843145335  0.6795585459229651
  0.6096583813859406  0.5674934967981703  0.6776981574815181
  0.6089717484573904  0.4313118184943446  0.3194328862317252
  0.6113176044427475  0.5626854344637212  0.3222271245097109
  0.3913465188476429  0.4304900180513435  0.6754640886637182
  0.3891903390360447  0.5710461631575906  0.6778289005707082
  0.3929577429470937  0.4376207741591421  0.3203881842970039
  0.3928048461716585  0.5623959977805175  0.3194321705636509
  0.6751389586154554  0.6089386388304439  0.4335656261987849
  0.5028342610001617  0.3636683289752256  0.2777357032616549
  0.6816808753772362  0.6111637376632427  0.5680096248247806
  0.3237910681045807  0.6140261282415089  0.5680744364124809
  0.6780737690477914  0.3903143811442013  0.4311891301518661
  0.6742935411260026  0.3867314933565544  0.5694031790827885
  0.3199019755585966  0.3871246596759029  0.4332115129858638
  0.3228668426577025  0.3866564595967813  0.5670814469594064
  0.4367075557058111  0.6770780969997303  0.6146067610746281
  0.5670258499462502  0.6811759362779509  0.6106743905671712
  0.4296080471884388  0.3217301784296054  0.6122623002243108
  0.5737140507475892  0.3196076535821699  0.6148899075831167
  0.4324384698670366  0.6806224004388973  0.3884411218162199
  0.5743923499952432  0.6767220507404218  0.3883446156936342
  0.3165087676576429  0.6095598053025176  0.4314043884425216
  0.4294932567212004  0.3133638942578831  0.3879006689650691
  0.5015230744752796  0.6351217071287850  0.7196007826723534
  0.5016422322814149  0.3634353892276140  0.7190596206507632
  0.6089343341473122  0.5012362725830342  0.4312668724971654
  0.6103804487023871  0.5046492300453143  0.5666513996001596
  0.3949207889149244  0.5016614564625467  0.4325767952320565
  0.3871923279023822  0.5031770929265188  0.5684430862270589
  0.4347708646093154  0.6123561868717919  0.5005605431499893
  0.5709993036069289  0.6027021712448828  0.5013116349374873
  0.4288730528273278  0.3866189009463846  0.4960333044195464
  0.5656501043131957  0.3926990108376842  0.4968291871892191
  0.5003875649697302  0.4302638330593436  0.6112345409985689
  0.4943300459626822  0.5658146383527650  0.6116455461104617
  0.4985177531011884  0.4278595071779639  0.3889146100419293
  0.5074175047024103  0.5016641167799278  0.7213011942368909
  0.5020599596607447  0.5677581626406082  0.3895793157732229
  0.7240422841818499  0.5013655764460904  0.5081039106778553
  0.7203954127908376  0.5038462017337014  0.6370316892328429
  0.2777925677777366  0.4968700703081087  0.3607941855677471
  0.2811712103017932  0.4964971111692314  0.4965507389348914
  0.2801289887330792  0.4975037739667523  0.6379751249373494
  0.3647571952085323  0.7242718084940797  0.4990737223045179
  0.5027484991810259  0.7234108797577329  0.4984287949097910
  0.6366412013314301  0.7177449667094200  0.5028793736152647
  0.3596756618081011  0.2772597886334213  0.4965166091792630
  0.4997145413375110  0.2774443632355377  0.5011395311532412
  0.6317175112630720  0.2745358167076478  0.5012194966179153
  0.7253605215688492  0.4963942791349385  0.3638919084156242
  0.5679073631900099  0.3188755102904364  0.3886378080098192
