Pt
 1.0000000000000000
    11.1775096386032189    0.0341735008422555   -0.0310454689864544
    -0.0079738816889025    7.9112123269168686    0.0214812953461396
    -0.0057238194662641   -0.0119658225793792   14.1710221678046349
 Pt 
  32
Direct
  0.0015179816299244  0.1187071857813815  0.4507894177773192
  0.1282985532042302  0.8790431521266748  0.5457018662175792
  0.1255226277557672  0.3661147831228698  0.5444433836670437
  0.5033118777294076  0.6204760343967342  0.6461929969416675
  0.4995125556896113  0.1317783499488845  0.6457123384288730
  0.0025875208196538  0.6258624421480563  0.6455245236729935
 -0.0002535863901856  0.1211868694907295  0.6453079000279814
  0.8717374386003984  0.8781466187150626  0.5458968548024655
  0.8722867024576878  0.3712419502814922  0.5497351856162147
  0.3787606679245265  0.8839480423917953  0.5506129883366683
  0.3803127682430610  0.3712133510472393  0.5470737497140189
  0.7536415281964719  0.6291173404715634  0.6523979745297888
  0.7514467104108502  0.1181255400082494  0.6472303075474689
  0.2511007003695824  0.6273878458567651  0.6433540063260497
  0.2527602856041095  0.1206999901123778  0.6449087321474185
  0.8758300214339213  0.8713998085324486  0.3489885365045854
  0.8697466955824542  0.3683852513200543  0.3547111536596890
  0.3789297861177788  0.8733366588632510  0.3528122270231310
  0.3720081366665006  0.3798894119595766  0.3558760046166586
  0.7488320595696624  0.6252685738801284  0.4483362758411037
  0.7527110464806481  0.1222007057473040  0.4512202325478547
  0.2549502227747278  0.6235661790998892  0.4504299107283093
  0.2527160902620675  0.1252488410445941  0.4477334250885098
  0.6235249598780385  0.8762394508738006  0.3545603151889222
  0.6286980075913342  0.3754824453894986  0.3548516928167962
  0.1186161233214964  0.8843756157364352  0.3511894816371106
  0.1188911850689372  0.3825446322974355  0.3478029707389071
  0.4954776238514937  0.6236026098670456  0.4497701046466570
  0.4989614490615826  0.1247002779720965  0.4524340659954434
  0.0011860239739028  0.6171580377694375  0.4516510764570675
  0.6215469032980738  0.3753171732166746  0.5516102913043857
  0.6279885363228195  0.8726679577206826  0.5474660147039511
