Pt
 1.0000000000000000
     7.9402506386327039   -0.0209819464782235    0.0585970040343974
    -0.0491900512889453    7.7847341084681601   -0.0523247805066654
    -0.0821831941829465    0.0213154831830853   15.8882408153131571
 Pt 
  32
Direct
  0.1148684613752161  0.1252136829550717  0.3103722915648186
  0.3774068477043508  0.8654103995908691  0.5643407028415254
  0.3810591799922967  0.3897442885826802  0.5720426933160959
  0.8927369965957132  0.6598950216014657  0.6888085569689836
  0.8653600499381601  0.1193780788631566  0.6849877995899372
  0.3953140885343639  0.6368108955349939  0.6902165813425376
  0.3682609285909867  0.1199894705992544  0.6864342007632706
  0.6372213276467739  0.8677226692513358  0.6897025816061894
  0.6260680411466624  0.3699174756425210  0.6873499442845931
  0.1284889178056168  0.8592080696201615  0.6778439704688684
  0.1312632515733148  0.3904902474034458  0.6839230623147623
  0.6094047084694212  0.6322547180494404  0.5624183150958461
  0.6343655816308804  0.1266207963633930  0.5663710405344723
  0.1232631238698608  0.6192227129081006  0.5581326142932194
  0.1115065183650837  0.1278122970095651  0.5658138586253162
  0.8601184248770509  0.8779956248487617  0.3098447665016975
  0.8705592091938270  0.3776082403408483  0.3187428807045189
  0.3913798433671472  0.8693992532321079  0.3160529064990943
  0.3900436052963095  0.3687079344411320  0.3151352791809300
  0.8669212528254864  0.6185204976099268  0.4461719546883184
  0.8960328607120074  0.1352350862932726  0.4425724022432880
  0.3788964956018844  0.6036708723064198  0.4360176111966714
  0.3751924066217796  0.1361199714235828  0.4365757290119538
  0.6264983324313325  0.8569936224728103  0.4395922342231202
  0.6068354808508392  0.3646941562285761  0.4414111727081637
  0.1306244374088592  0.8784625118204378  0.4358792196020729
  0.1364479524528172  0.3681943402481780  0.4333349838316394
  0.6279394549138255  0.6447482232690267  0.3074857333344982
  0.6192852039051444  0.1207437130207925  0.3168522059306713
  0.1131388346783432  0.6338487048030099  0.3196245202116207
  0.8735546261216828  0.3906844106041072  0.5643306056539270
  0.8743655495350355  0.8761079563221302  0.5681241554559824
