Pt
 1.0000000000000000
    19.9354000000000013    0.0000000000000000    0.0000000000000000
     0.0000000000000000   19.9354000000000013    0.0000000000000000
     0.0000000000000000    0.0000000000000000   19.9354000000000013
 Pt 
  38
Direct
  0.2916868078894830  0.4009802512114128  0.5030558047493403
  0.4975362009290006  0.6911462839973113  0.4029290563520170
  0.3987495676033588  0.6018770910039426  0.5995028662580133
  0.5028824653631229  0.5938080916359841  0.7003428870250910
  0.5015102365641020  0.6916966677367897  0.6042486044925107
  0.6038776824141978  0.3011024484083589  0.4949193580264253
  0.5956840193826058  0.5004602516127090  0.2898273072022632
  0.6033674709311074  0.3938838678932953  0.3940568405951222
  0.5884098859315589  0.4976058488919208  0.5051073738174302
  0.7030778945995565  0.4032287859787111  0.4977922404366101
  0.7011816612658888  0.4949664556517551  0.4038874670184696
  0.6017021218535871  0.3982443793452852  0.5966081528336526
  0.6059092955245442  0.4947490765171503  0.6956306108731201
  0.6977154263270362  0.5057487840725543  0.5903979523862074
  0.6038808722172617  0.5957052609930074  0.4011725317776417
  0.5862265116325731  0.6988925710043440  0.5047604136360444
  0.5023461831716444  0.5983024057706391  0.4993335473579661
  0.3996010453765663  0.7041143528597369  0.4968520556397162
  0.3995841427811831  0.5982444555915607  0.3985611434934839
  0.5065169547638873  0.5986263395768331  0.3019152989154970
  0.3013019452832649  0.5026341156936907  0.4005610607261454
  0.3067691358086619  0.5007430831586023  0.6015103855453113
  0.3032949943316913  0.5949650852252776  0.5020473128204098
  0.4009380278298905  0.2963482864652828  0.5016320660734171
  0.4950186452240737  0.2989683628118823  0.3983485417899816
  0.5078022959158079  0.2998613832679555  0.5991618452601903
  0.3985555589554260  0.5094777767188017  0.2990053507830291
  0.6997283616079938  0.6002731442559467  0.5042629061869839
  0.4986226316000681  0.4053645484916280  0.3020010298263390
  0.3953435852804558  0.5037319406683587  0.4931520847336898
  0.4981334490404004  0.4084333386839491  0.4959941305416495
  0.5017449511923512  0.5022102671629362  0.4013487554802009
  0.4008378321979995  0.3986212054937447  0.5986020962709551
  0.3966800239774471  0.4977508166377398  0.6989373847527512
  0.5009314646307572  0.4027889794034731  0.6949376731843855
  0.5026714628249244  0.4951574916981851  0.6044072423929291
  0.3976520636656400  0.4040799221485397  0.4052545682554651
  0.5985158301313241  0.5968641456905805  0.6009102064668880
