Pt
 1.0000000000000000
    11.0372867101202754    0.0098517005355393    0.0609186935718884
     5.6177715561471473    9.7713900260402564    0.0014949731124617
     0.1155654278459959    0.0148136623316959   14.6213231067038123
 Pt 
  48
Direct
  0.5088969335261384 -0.0092936118936651  0.3456549944532407
  0.5878320690409188  0.3389290266974795  0.4969705207595627
  0.5924104364212648  0.8230478674620818  0.5046008573834191
  0.0896553383409322  0.0787595513392986  0.4960122539922361
  0.1003915441712088  0.5726104310159095  0.4952980546449149
  0.5751092253251360  0.0950889744427999  0.4876039103877790
  0.5951732887666881  0.5755496780803099  0.5008874201096054
  0.1427313934242789  0.1664047940041554  0.6636906132550220
  0.1670873874801897  0.6682063681333714  0.6629106267164292
  0.6675975291165508  0.1612568089926971  0.6590007132584969
  0.0656861627612705  0.8284559559455058  0.5070376580352534
  0.6663805747202799  0.6745581778450254  0.6522476981070982
  0.1612446066657537  0.9063058207817195  0.6582031151455919
  0.6547246360531068  0.4268246261775860  0.6545156515141022
  0.6602062386739820  0.9217362652002069  0.6511143032708009
  0.4284135297159430  0.1558817893683715  0.6512823168521104
  0.4063107802726808  0.6813975018627791  0.6621910354130828
  0.9293612400049595  0.1587355575037887  0.6431284708906183
  0.9234910092133367  0.6534266563775554  0.6626612672603297
  0.4109527838961838  0.4284592113722444  0.6585934964989207
  0.4169505587679501  0.9235762143129798  0.6578959957910833
  0.1507489853583530  0.4244950013330619  0.6593186608208778
  0.0972420688871466  0.3198630004628386  0.4911775139094657
  0.8260812314518696  0.5843026326812231  0.4848347261144961
  0.8411512841962001  0.0836018556247762  0.4930402130870695
  0.5055993003183125  0.4905575185520142  0.3451025823059675
  0.9931079398160568 -0.0040767445528007  0.3400144357711811
  1.0152589279666508  0.4977192957409700  0.3423563188485518
  0.4866899436319412  0.2693537798828011  0.3402715740218876
  0.4924285505121422  0.7599584376122956  0.3443330745003603
  0.9910813627924044  0.2573311877012618  0.3494377148813614
  0.9869197373930003  0.7576410938525937  0.3336166570067108
  0.2384226889084198  0.0162337455865228  0.3374844955035706
  0.2508456013967779  0.5045067135182034  0.3440719518328881
  0.7525853349714925 -0.0038053670016463  0.3416460902381122
  0.7454598321769329  0.4954159950403875  0.3427957367978111
  0.2493447562763101  0.2547074635039043  0.3373252055505017
  0.2597943906676031  0.7401004800546586  0.3495316872152170
  0.7626870717482366  0.2481744940153846  0.3441329843454573
  0.7497144849837972  0.7474143069575652  0.3402766290315371
  0.3264907814418492  0.3437240612607057  0.4957353904981615
  0.3388409008213129  0.8308574639913729  0.4990686329938654
  0.8370373168504855  0.3172447319438081  0.5033170947756486
  0.8277400027151923  0.8381602357427349  0.5000077257063741
  0.3444533781677039  0.0716785312695181  0.5017478308351579
  0.3436169790066592  0.5683562855654013  0.5064141631470869
  0.9005728831362443  0.4268090863075710  0.6402634583796785
  0.8990620095165092  0.9307086369790102  0.6518049066423229
