Pt                                      
   1.0000000000000000     
     7.9354305576916460    0.0000000000000000    0.0000000000000000
     0.0000000000000000    7.9354305576916460    0.0000000000000000
     0.0000000000000000    0.0000000000000000   15.9515729182687345
   Pt
    32
Direct
     0.1250000000363585    0.1250000000363585    0.3178502347480515
     0.3750000001090825    0.8750000002545306    0.5613654957971878
     0.3750000001090825    0.3750000001090825    0.5613654957971878
     0.8750000002545306    0.6250000001818066    0.6821497653604838
     0.8750000002545306    0.1250000000363585    0.6821497653604838
     0.3750000001090825    0.6250000001818066    0.6821497653604838
     0.3750000001090825    0.1250000000363585    0.6821497653604838
     0.6250000001818066    0.8750000002545306    0.6821497653604838
     0.6250000001818066    0.3750000001090825    0.6821497653604838
     0.1250000000363585    0.8750000002545306    0.6821497653604838
     0.1250000000363585    0.3750000001090825    0.6821497653604838
     0.6250000001818066    0.6250000001818066    0.5613654957971878
     0.6250000001818066    0.1250000000363585    0.5613654957971878
     0.1250000000363585    0.6250000001818066    0.5613654957971878
     0.1250000000363585    0.1250000000363585    0.5613654957971878
     0.8750000002545306    0.8750000002545306    0.3178502347480515
     0.8750000002545306    0.3750000001090825    0.3178502347480515
     0.3750000001090825    0.8750000002545306    0.3178502347480515
     0.3750000001090825    0.3750000001090825    0.3178502347480515
     0.8750000002545306    0.6250000001818066    0.4386345043113477
     0.8750000002545306    0.1250000000363585    0.4386345043113477
     0.3750000001090825    0.6250000001818066    0.4386345043113477
     0.3750000001090825    0.1250000000363585    0.4386345043113477
     0.6250000001818066    0.8750000002545306    0.4386345043113477
     0.6250000001818066    0.3750000001090825    0.4386345043113477
     0.1250000000363585    0.8750000002545306    0.4386345043113477
     0.1250000000363585    0.3750000001090825    0.4386345043113477
     0.6250000001818066    0.6250000001818066    0.3178502347480515
     0.6250000001818066    0.1250000000363585    0.3178502347480515
     0.1250000000363585    0.6250000001818066    0.3178502347480515
     0.8750000002545306    0.3750000001090825    0.5613654957971878
     0.8750000002545306    0.8750000002545306    0.5613654957971878

  0.00000000E+00  0.00000000E+00  0.00000000E+00
  0.00000000E+00  0.00000000E+00  0.00000000E+00
  0.00000000E+00  0.00000000E+00  0.00000000E+00
  0.00000000E+00  0.00000000E+00  0.00000000E+00
  0.00000000E+00  0.00000000E+00  0.00000000E+00
  0.00000000E+00  0.00000000E+00  0.00000000E+00
  0.00000000E+00  0.00000000E+00  0.00000000E+00
  0.00000000E+00  0.00000000E+00  0.00000000E+00
  0.00000000E+00  0.00000000E+00  0.00000000E+00
  0.00000000E+00  0.00000000E+00  0.00000000E+00
  0.00000000E+00  0.00000000E+00  0.00000000E+00
  0.00000000E+00  0.00000000E+00  0.00000000E+00
  0.00000000E+00  0.00000000E+00  0.00000000E+00
  0.00000000E+00  0.00000000E+00  0.00000000E+00
  0.00000000E+00  0.00000000E+00  0.00000000E+00
  0.00000000E+00  0.00000000E+00  0.00000000E+00
  0.00000000E+00  0.00000000E+00  0.00000000E+00
  0.00000000E+00  0.00000000E+00  0.00000000E+00
  0.00000000E+00  0.00000000E+00  0.00000000E+00
  0.00000000E+00  0.00000000E+00  0.00000000E+00
  0.00000000E+00  0.00000000E+00  0.00000000E+00
  0.00000000E+00  0.00000000E+00  0.00000000E+00
  0.00000000E+00  0.00000000E+00  0.00000000E+00
  0.00000000E+00  0.00000000E+00  0.00000000E+00
  0.00000000E+00  0.00000000E+00  0.00000000E+00
  0.00000000E+00  0.00000000E+00  0.00000000E+00
  0.00000000E+00  0.00000000E+00  0.00000000E+00
  0.00000000E+00  0.00000000E+00  0.00000000E+00
  0.00000000E+00  0.00000000E+00  0.00000000E+00
  0.00000000E+00  0.00000000E+00  0.00000000E+00
  0.00000000E+00  0.00000000E+00  0.00000000E+00
  0.00000000E+00  0.00000000E+00  0.00000000E+00
