Pt
 1.0000000000000000
     7.8905466783374463    0.0341735008422555   -0.0310454689864544
    -0.0079738816889025    7.9112123269168686    0.0214812953461396
    -0.0057238194662641   -0.0119658225793792   15.9141975168393373
 Pt 
  32
Direct
  0.1271503134938207  0.1187044302713173  0.3135875818374146
  0.3796729185319445  0.8790378263692343  0.5589244329308278
  0.3757407301567035  0.3661146570683505  0.5578015366915601
  0.8796916532021960  0.6204703926770652  0.6848599359563002
  0.8743096915066848  0.1317796195941152  0.6844288300404590
  0.3786656052234174  0.6258582147408632  0.6842640934062175
  0.3746409994586168  0.1211877854804612  0.6840688821034319
  0.6203786342286592  0.8781530588630614  0.6834602403874425
  0.6211563984880958  0.3712467681562911  0.6868785842745357
  0.1303271442033529  0.8839410737285315  0.6876655129145079
  0.1325260837194476  0.3712041765536432  0.6845152126800587
  0.6301581318554976  0.6291100801914976  0.5660179902737721
  0.6270494322984964  0.1181230820669397  0.5614145788649709
  0.1265595952668770  0.6273866497072710  0.5579625887309423
  0.1289103876600947  0.1206955539370656  0.5593483697297329
  0.8761760151586809  0.8713987986170195  0.3108527681093166
  0.8675581103826606  0.3683942342546598  0.3159435961341885
  0.3805667397276826  0.8733294428147551  0.3142601548037830
  0.3707615038459935  0.3798941358113851  0.3169826974498471
  0.8733457146193352  0.6252710537176552  0.4357684826887007
  0.8788403369686036  0.1221957336234658  0.4383397045562650
  0.3820123452440171  0.6235573111847432  0.4376377763490985
  0.3788477594488129  0.1252444363258941  0.4352348308050288
  0.6229102935348312  0.8762416646773565  0.4401798839554061
  0.6302382455673400  0.3754753089097591  0.4404435616991801
  0.1159568586219092  0.8843872125904279  0.4371742756606096
  0.1163467708142940  0.3825562944376164  0.4341589331165899
  0.6185938127772622  0.6236108845890735  0.3126749972891580
  0.6235286790205538  0.1247018476790022  0.3150499984520905
  0.1266800028557843  0.6171557379928437  0.3143545874759913
  0.8701082734332185  0.3753230113557160  0.5641801709109224
  0.8792336179268779  0.8726628977643914  0.5604950913254870
