Pt
 1.0000000000000000
     8.0462309447153739    0.0211158595236312    0.0614528328709052
    -0.0296612676617882    7.9584868097970798    0.0726562550285150
     0.0109454087317174    0.0218923373747863    8.0287948381476770
 Pt 
  32
Direct
  0.1258100690928010  0.1303624055364446  0.1257141826407212
  0.6092077582976495  0.8737700834700606  0.8599004364417913
  0.6142229153518344  0.6174668218502493  0.6300267433567176
  0.8645951174854972  0.8694161216338498  0.1145087737099207
  0.8694661526196132  0.6298120483548588  0.3507261580096016
  0.6237370656281923  0.8663576343491848  0.3727112399117883
  0.6177891254951298  0.6236700406828007  0.1242754085396694
  0.8705415076740541  0.3744187360412374  0.6134614801272943
  0.8789113533792742  0.1273904292458330  0.8853714497974343
  0.6291175708838082  0.3853218258301646  0.8547526485055926
  0.6334752923685494  0.1217396524887859  0.6129668076843439
  0.8843394726947791  0.3717968587570579  0.1282670522232801
  0.8771679020020536  0.1134449798813520  0.3878863930277077
  0.6258029335899017  0.3649030394087063  0.3768773993629805
  0.6196222848324145  0.1162340868526887  0.1313197289361770
  0.3794555663385664  0.8649486041226597  0.6371540993707073
  0.3610276645141222  0.6183655754926658  0.8769522428027803
  0.1286250510447414  0.8682083934079093  0.8772066714573895
  0.1253699459001965  0.6122849418502477  0.6208712230505099
  0.3662145486888999  0.8782990597402346  0.1211713025031269
  0.3850313049914729  0.6368402978784554  0.3639589643747043
  0.1366708945690125  0.8497239289282794  0.3689042474719678
  0.1219045931280985  0.6272603497740774  0.1345831511767878
  0.3702664133643939  0.3856905468611594  0.6325919582743681
  0.3832232719304872  0.1266482649212398  0.8736557013955373
  0.1349823729067921  0.3724102847516141  0.8761185166609563
  0.1243070629202816  0.1207032408958750  0.6245837855462401
  0.3664261958366394  0.3795406110360471  0.1182276321582545
  0.3830024515001320  0.1276143400687411  0.3815925049877495
  0.1351581710347924  0.3800061615025880  0.3701338485823522
  0.8749678113393711  0.6177104266012127  0.8751062026955977
  0.8770526868078460  0.8688628328257416  0.6220694424176253
