Pt
 1.0000000000000000
    19.9354000000000013    0.0000000000000000    0.0000000000000000
     0.0000000000000000   19.9354000000000013    0.0000000000000000
     0.0000000000000000    0.0000000000000000   19.9354000000000013
 Pt 
  38
Direct
  0.3012139249776778  0.3994335729405981  0.5029393440813827
  0.5037090407014657  0.6996553979353310  0.4038465478495540
  0.3942556126287909  0.6023635477592624  0.5996359837274396
  0.5024672602506094  0.6055534386066995  0.6969109533794154
  0.5014644943166428  0.6928481600569840  0.5926260220512254
  0.5999485779066384  0.2989871545090642  0.5006529981841348
  0.6043866388434643  0.4971487233765061  0.3035387025091044
  0.5968426106323425  0.3985364361888901  0.4003860965919921
  0.6075607592523851  0.5045946697834003  0.5029498991743331
  0.6952085942594580  0.3982991948995254  0.4987403428072674
  0.7059970805702418  0.5136101823891168  0.4022456288812865
  0.6018502708749259  0.4062478495540596  0.6073504735295002
  0.6004873451247529  0.4962550533222307  0.7007791566760636
  0.6984046179158682  0.5061285477091003  0.6011795188458721
  0.5992340058388594  0.5999536041413767  0.4052157087392277
  0.5998275113616982  0.7014527604161440  0.4959484329383909
  0.4993391599867572  0.5972554069644952  0.4967813492581036
  0.3950897248111400  0.7001441395708137  0.5028460933816227
  0.3945662183853847  0.6006955250458982  0.3975621693068611
  0.4982029761128445  0.6005427776718801  0.3051716203336777
  0.2985046675762713  0.4924407611585421  0.3978613531707414
  0.2968496649176841  0.5010692276051647  0.5963370637158020
  0.2969489134905745  0.5996047468322682  0.4975177929712973
  0.3957144857890987  0.3044466291120319  0.5048639445408669
  0.4977202739849714  0.2993197227043350  0.4031929813296948
  0.5011466361347151  0.3086743125294701  0.5947183236855041
  0.4050810447746220  0.4973255630687120  0.2974521544589022
  0.6984640338292685  0.5955154117800495  0.4938989044614103
  0.5022396495681050  0.4018301829910611  0.2994358071571174
  0.4011199634820469  0.4929688669402169  0.5014671107677798
  0.5000543114259056  0.4048268677829389  0.4989827101537967
  0.5016120143062091  0.4916649934287749  0.3991200256829559
  0.4088185760004815  0.4044657995324899  0.6033394865415290
  0.3972498545301323  0.4974872041694673  0.7056805125555543
  0.5060004258755781  0.3980150004514582  0.7004327633255414
  0.5065271602275350  0.4977984640388454  0.6016522828736819
  0.3932617690139149  0.3964846203236453  0.4033248422404366
  0.6034849764740110  0.6041151524423888  0.5944426467489992
