Pt
 1.0000000000000000
    21.5463013567337569    0.0000000000000000    0.0000000000000000
     0.0000000000000000   21.5463013567337569    0.0000000000000000
     0.0000000000000000    0.0000000000000000   21.5463013567337569
 Pt 
  55
Direct
  0.4999376970392898  0.4995675574098490  0.5004320756253700
  0.4999707064170120  0.4992481230027067  0.2785200680452060
  0.5006810102295601  0.6379192118606662  0.2800374746505760
  0.6108492600233074  0.4312209894482081  0.6799153770037480
  0.6115478908347296  0.5692501189382468  0.6784485414909270
  0.6104918065619228  0.4318331998587842  0.3183176637347331
  0.6099010035378102  0.5682968221445222  0.3203465720506534
  0.3904584183944289  0.4312337600855182  0.6789419496088209
  0.3885187096106316  0.5690491930378651  0.6804294424953893
  0.3880853809457523  0.4317412230518515  0.3225086637817913
  0.3889528017476135  0.5686332297664147  0.3205998224767778
  0.6801352309787561  0.6101194414925235  0.4305512410881031
  0.4993759277685645  0.3623058635797053  0.2775614218414785
  0.6774928758451588  0.6110044736697069  0.5674443705011565
  0.3203774901181662  0.6113104403361361  0.5674258940121568
  0.6792865707053638  0.3885134715886560  0.4313457644597282
  0.6795318954092414  0.3892102825981849  0.5697374842556691
  0.3216709501667648  0.3901574196340095  0.4321237467093249
  0.3201358268315636  0.3892033960334078  0.5674164636233102
  0.4314716895526283  0.6796859710412971  0.6101731722921087
  0.5698334069834626  0.6796251397190993  0.6104826300449547
  0.4333303955707488  0.3211409919242365  0.6105925426448386
  0.5694601136805039  0.3219034025917576  0.6109528327879807
  0.4325926949446953  0.6791717152617761  0.3887612078433210
  0.5670401066854888  0.6802428875069739  0.3894217072842402
  0.3208681441670894  0.6083893264540856  0.4295557811414105
  0.4305717578344663  0.3215294739129275  0.3883383236624519
  0.4995008758956433  0.6375508697555131  0.7206524536587020
  0.4995115213422192  0.3618615520553514  0.7214582532116063
  0.6096984467310645  0.4991953167237467  0.4305830683603875
  0.6116599884964122  0.4989183638536832  0.5689453469084086
  0.3903449525164797  0.5001208588699289  0.4303390696381493
  0.3885183568818791  0.5005193973410023  0.5661246057058352
  0.4318242294096662  0.6102279213639085  0.4999698106716272
  0.5677558248843888  0.6103642152897837  0.5003855971145844
  0.4318699022137223  0.3888942886887303  0.5010203195095594
  0.5682271113400954  0.3899126500138003  0.4985534413609630
  0.4999144071951681  0.4321365990311882  0.6097009302199526
  0.5008011315421301  0.5673123780095954  0.6110655769643375
  0.4976073434826082  0.4314810257257686  0.3895125813497043
  0.4994188386136647  0.5005789541985229  0.7227486607641448
  0.4994384684328618  0.5690974806758579  0.3899119436280616
  0.7219433814861504  0.5000978010841969  0.5004005620960288
  0.7224136700907807  0.5008622297314762  0.6384326512587717
  0.2778328772482866  0.4986919978561393  0.3632049195095040
  0.2793907850044365  0.5003204230516791  0.5007647642795070
  0.2783338987378345  0.5020149537925011  0.6363701218592136
  0.3624749199731759  0.7223580568335370  0.5004364313613474
  0.5010299698897597  0.7221301638917880  0.4993678191843064
  0.6361866769173390  0.7221099228307919  0.5007063765321543
  0.3627775765587324  0.2780460609369369  0.5012925954748340
  0.5005180077753639  0.2773102580843955  0.5004086590773673
  0.6373064640028593  0.2790252531263846  0.4996212979558867
  0.7228176289817242  0.4995652126918781  0.3635398401012344
  0.5684419171168907  0.3216322372579369  0.3883954336963100
