Pt
 1.0000000000000000
    11.2111688362121047    0.1117357076168457   -0.0492976954048105
     0.0423404357023412    7.9321650127277250   -0.0083715830791044
     0.0405084405700232   -0.0535311420860088   14.2962765518674821
 Pt 
  32
Direct
 -0.0067249887902387  0.1213995547248217  0.4444319370122421
  0.1244412072202434  0.8669914459444823  0.5499895771546789
  0.1325065810213805  0.3735399970551830  0.5448186037763518
  0.4999298232726259  0.6326138558402596  0.6514422271990868
  0.5004840112135535  0.1141870670649467  0.6457249383338487
  0.0042801711213328  0.6272030022197956  0.6464033212484002
  0.0041330734541414  0.1195619570276646  0.6579912720437545
  0.8784465039222527  0.8760711749860035  0.5532798936916999
  0.8740126479741044  0.3875057133851302  0.5466366397726250
  0.3796741777324592  0.8875654321387263  0.5381269501753779
  0.3631736633252866  0.3861192477416207  0.5473263374282198
  0.7570779225500500  0.6297611515205844  0.6361340060559724
  0.7503513806522756  0.1337941532947546  0.6398067146710974
  0.2491260766237143  0.6179879729068094  0.6542691612857776
  0.2454656120275093  0.1411483608699725  0.6381200217487337
  0.8747528586904926  0.8730165355590663  0.3522424109640820
  0.8680753074402001  0.3829249081960815  0.3523684961955079
  0.3717925470177490  0.8794313054250773  0.3474875482402069
  0.3777769603274050  0.3694324108559550  0.3539483598601607
  0.7523707941382906  0.6268344865817531  0.4521152616048025
  0.7522960685298881  0.1102344094671033  0.4460995711589371
  0.2529401501999259  0.6272955631304636  0.4615917801716062
  0.2414520330954206  0.1330532050735789  0.4520376540910194
  0.6269315671253621  0.8688135249046833  0.3529903599535917
  0.6256027228769729  0.3780570300874225  0.3495856631047040
  0.1220671204103671  0.8786829254201864  0.3540216710602278
  0.1202031399012659  0.3673325647745560  0.3498896250861776
  0.4999090101567150  0.6306988317637769  0.4546040478583121
  0.5045459239279404  0.1244960238961399  0.4610721880041946
 -0.0021570535271973  0.6168222071983467  0.4516083567047023
  0.6242709566552735  0.3701831438782831  0.5562739388512941
  0.6190685678810066  0.8737098241444110  0.5550233320743538
