Pt
 1.0000000000000000
     7.9999934821874259    0.0287937782832318   -0.1423062952468060
    -0.0917832556871332    8.0084079928245764    0.1472721563535440
    -0.0185402377620843    0.1177506575393625    7.9142646783638648
 Pt 
  32
Direct
  0.1258880523318263  0.1321508630942338  0.1208512917676437
  0.6145275047937331  0.8771452965252696  0.8958241076599303
  0.6214360260012772  0.6169715628176992  0.6204558459552695
  0.8798202961182122  0.8754612083848893  0.1305951163961425
  0.8809947763344076  0.6164090269917887  0.3664236279687560
  0.6289783244243035  0.8821916046794803  0.3666316636002481
  0.6372195328376015  0.6247575237684444  0.1303327340155096
  0.8821677462259351  0.3974172120284825  0.6189108556547303
  0.8837703583833929  0.1440960656606164  0.8637354593316140
  0.6218513590608015  0.3853750277453620  0.8709292122368373
  0.6186474259836445  0.1138947886577836  0.6086864298716548
  0.8687646727353970  0.3617207470857411  0.1251608339944888
  0.8804610412889263  0.1309911997477065  0.3666826142899142
  0.6294862178498838  0.3548906270647456  0.3805891192757467
  0.6211644766959830  0.1381964361285983  0.1425648438765315
  0.3949889121250895  0.8779520844197143  0.6127306476567090
  0.3645679187482687  0.6307964407454717  0.8695278345501131
  0.1203836656928777  0.8693569854914747  0.8743613016249553
  0.1219016283558851  0.6297167057012658  0.6381575607121994
  0.3725274850989076  0.8609148225858376  0.1235176954083347
  0.3708014630532929  0.6316287304752559  0.3677566831046351
  0.1309662060480209  0.8714871159497146  0.3768268815848496
  0.1338936785034573  0.6140597299326136  0.1114065612688125
  0.3804243585704785  0.3756605237498765  0.6380378330667830
  0.3775474849630054  0.1273115235213218  0.8729544363299542
  0.1228685512629544  0.3948056882946400  0.8594845459076824
  0.1294946880937050  0.1333433934453641  0.6254596139248522
  0.3686473386827093  0.3922884466220132  0.1268357999598069
  0.3886296644878782  0.1360414175576133  0.3903557639795604
  0.1216350030259075  0.3721319933831339  0.3593689358551059
  0.8719534625739933  0.6082375208756912  0.8733085127298122
  0.8743375330232885  0.8625998422237640  0.6171584038171199
