Pt
 1.0000000000000000
     7.9541041212734340   -0.0073865240594299   -0.0143480283471592
    -0.0265872099280292    7.9141857935882989    0.0105987149601194
     0.0058184631648897   -0.0417036510450590    7.9238903772014737
 Pt 
  32
Direct
  0.1276254349394632  0.1270265675031912  0.1234078424141907
  0.6255585326976457  0.8756830482869059  0.8755002588748411
  0.6239894250293111  0.6260294504996717  0.6248469848222222
  0.8730495655066413  0.8781822635604785  0.1284255142332316
  0.8716922394740624  0.6277357856470744  0.3778503992071957
  0.6246049654742267  0.8742324016694877  0.3733151316968291
  0.6246215268926992  0.6276881335751129  0.1266751825152072
  0.8771210099841907  0.3752033303330350  0.6286332378217607
  0.8720284563882368  0.1280038838931858  0.8723536032528911
  0.6244517072890549  0.3695883441342406  0.8717636022780527
  0.6284723593240105  0.1296402099645509  0.6249894463258908
  0.8708607535605951  0.3763078285794700  0.1219026853457416
  0.8751606505030581  0.1262841681489520  0.3728384428966505
  0.6231180160437053  0.3733897520291062  0.3765963978998091
  0.6215958556506785  0.1292752801049718  0.1242289918528364
  0.3727673959551625  0.8774021285214111  0.6275358347214588
  0.3759484447026312  0.6258259224536260  0.8734629126481346
  0.1259976969460765  0.8727346860577071  0.8747360970940257
  0.1259028716962652  0.6258885971580375  0.6251617964562949
  0.3766556648647181  0.8746585902266050  0.1227979505964618
  0.3768300633432475  0.6269801730930851  0.3726557276444223
  0.1219603918250847  0.8723899636281056  0.3767661308377368
  0.1233342768139077  0.6233374221772233  0.1247379899250137
  0.3737611223075651  0.3731284204252380  0.6265606951972720
  0.3762286159975526  0.1209514251544933  0.8756875725000562
  0.1256775835988348  0.3757120193318760  0.8745657626550338
  0.1268627745007055  0.1236477658884162  0.6207208869787182
  0.3752823772096603  0.3771781982120549  0.1249131791149217
  0.3754719356428017  0.1257551616290015  0.3739128531343591
  0.1290425602823216  0.3751724343406180  0.3702245161115585
  0.8776381047612116  0.6289390829650388  0.8728111219505059
  0.8765402565090584  0.8732794800341424  0.6272134062401920
