Pt
 1.0000000000000000
     8.0122734787945884    0.0094879962959329   -0.0299886723696817
    -0.0449052777258737    7.9835287204966336   -0.0494955386534665
    -0.0349615528067640   -0.0980850405609297    7.9402543091455478
 Pt 
  32
Direct
  0.1185602732573393  0.1241622195741437  0.1260551592127425
  0.6278464005187160  0.8834138109977528  0.8732941946766278
  0.6203589452669436  0.6256956759556365  0.6212417541833875
  0.8752768125049695  0.8711555415241126  0.1238614865532579
  0.8699167061916258  0.6320208164212718  0.3847398759409016
  0.6274468847101721  0.8818077372845327  0.3680349223367773
  0.6194842429013890  0.6292776187539292  0.1286211089643610
  0.8776975480540818  0.3734849257911251  0.6177515191345411
  0.8809417074701620  0.1242493982570103  0.8809884835903918
  0.6159970479053671  0.3742944886021001  0.8712619875424571
  0.6252631889029209  0.1239716821154548  0.6318942130508205
  0.8790121105004091  0.3738088838224415  0.1196262300005901
  0.8773129670971834  0.1275752167208011  0.3796384105398712
  0.6302628608253317  0.3666509842904149  0.3818134238992136
  0.6243993815279376  0.1206109357220368  0.1121273774173792
  0.3712513882829748  0.8771736829649780  0.6273103651660006
  0.3747198609444112  0.6306753880973757  0.8759222032950317
  0.1214239534916876  0.8719941422648163  0.8781244153480360
  0.1296824560930767  0.6270358198995093  0.6321508688414990
  0.3730850117025862  0.8708021954433276  0.1305079381037595
  0.3645654849527364  0.6154951102106219  0.3751706218619283
  0.1261962373488517  0.8763398054378944  0.3788822928334522
  0.1340090984377204  0.6250562591230691  0.1269860765064244
  0.3653673424282796  0.3579058817652163  0.6152336783854930
  0.3686589350017360  0.1243812335468444  0.8667805450819784
  0.1230613383128189  0.3770346488029730  0.8760495216352968
  0.1245364906178759  0.1270207692743773  0.6255502471362439
  0.3667239748119490  0.3754662954097993  0.1295070953185793
  0.3721144013867468  0.1208813843215314  0.3690616159135014
  0.1177292987126620  0.3765603710342117  0.3676481357032797
  0.8769539348660500  0.6277363934963366  0.8684576320461128
  0.8782318188088406  0.8781727619949875  0.6291879662355856
