Pt
 1.0000000000000000
    11.1919446537100633   -0.0967226470046847    0.0195085134567415
    -0.0394433462496239    7.9620676581368075   -0.0059600032408745
    -0.0082849294400319    0.1001737112098430   14.1695040394596088
 Pt 
  32
Direct
  0.0109633955503495  0.1296096787681769  0.4521929614976307
  0.1228587585084328  0.8723970697116387  0.5470506170175587
  0.1233836167920951  0.3609603212478437  0.5498740105538007
  0.5041092059951215  0.6283195455769119  0.6491398110819064
  0.4992303002548766  0.1291609296159755  0.6442686902171014
  0.0054614070650719  0.6266536993987324  0.6469719263720763
  0.0029131596486354  0.1202248456038927  0.6451559280831302
  0.8892961237327003  0.8796815648255443  0.5489996091547821
  0.8781624040600738  0.3760285831601407  0.5456048402942073
  0.3649611372758859  0.8642080509068221  0.5512288060171469
  0.3744418453978604  0.3721957461585111  0.5510975163511398
  0.7434171701578211  0.6217114188649164  0.6428062303972280
  0.7494436140686982  0.1146956331958625  0.6524702713495978
  0.2553078047445272  0.6301846712642982  0.6457011142704432
  0.2532407563193375  0.1324769487333958  0.6466856078253254
  0.8781711378876709  0.8682632092979001  0.3535124041131633
  0.8801632913640041  0.3656496173363766  0.3466485419540464
  0.3736633676901923  0.8665576858114180  0.3484164206475110
  0.3728525872222547  0.3853798304323995  0.3520923281033488
  0.7548584867897710  0.6285994591261153  0.4629525747406685
  0.7573412717961252  0.1153164510089057  0.4518446698063634
  0.2539596238865285  0.6231517722940331  0.4511521457660114
  0.2471108380843278  0.1150017494461035  0.4501473882167428
  0.6140596988381598  0.8677008716503855  0.3532555793180758
  0.6257344475915870  0.3715370757583559  0.3526161402241280
  0.1196266674999013  0.8843691780465240  0.3470943337902564
  0.1198296180139534  0.3679334602044043  0.3458769130698954
  0.5048199687708640  0.6032147768039742  0.4526135429307013
  0.5062292556838873  0.1293710656661102  0.4514804854078658
 -0.0039024140356856  0.6335503283518185  0.4506234067561956
  0.6215439877166143  0.3743567835411754  0.5473234466638813
  0.6260104494099673  0.8593674338474967  0.5515599408172733
