Pt
 1.0000000000000000
    21.5463013567337569    0.0000000000000000    0.0000000000000000
     0.0000000000000000   21.5463013567337569    0.0000000000000000
     0.0000000000000000    0.0000000000000000   21.5463013567337569
 Pt 
  55
Direct
  0.4994790438423266  0.5051858418659962  0.4977120110987647
  0.5002261405125850  0.4960276714341912  0.2769003051252423
  0.4999847389878461  0.6397073521712517  0.2806879157526457
  0.6146594420420577  0.4310562168526141  0.6761881781369736
  0.6104596460537907  0.5655037548331716  0.6796401900980313
  0.6103891471790720  0.4297492389386903  0.3253661426121780
  0.6076867715352912  0.5679367246098437  0.3245468804238451
  0.3852849745557645  0.4340112590636107  0.6748248211731195
  0.3917363843684541  0.5683314475768713  0.6797723612745525
  0.3901517527681294  0.4312061312136231  0.3213061344209039
  0.3916662317248532  0.5726574373816536  0.3189370999794522
  0.6826014454403576  0.6157915927344723  0.4304850144083415
  0.5022282456203611  0.3639243970543196  0.2773366788603132
  0.6776283473561004  0.6117627393102686  0.5613797556126636
  0.3202679840845813  0.6070175309189432  0.5696527778380904
  0.6813158076159640  0.3872635285216719  0.4314943412361780
  0.6730839799317861  0.3887535814763970  0.5748684289208169
  0.3238979096437334  0.3898901431346858  0.4334482023329385
  0.3200953391401702  0.3904876674980020  0.5739426575009455
  0.4267339669008425  0.6832703194044497  0.6096355862903060
  0.5669559516386443  0.6751544373741749  0.6120853055774405
  0.4243767901789952  0.3169760009815124  0.6088340988464017
  0.5737169691138999  0.3221156190610391  0.6156232612914115
  0.4325852574733007  0.6773486288141468  0.3835053480033857
  0.5708441373004408  0.6807097254033471  0.3898148708188879
  0.3202171066749577  0.6122827765925142  0.4306882307250312
  0.4300803509881265  0.3225313590923183  0.3902079633436685
  0.5021584772654536  0.6349078862077961  0.7280886181004439
  0.4995056971407508  0.3676925477292671  0.7197169306811724
  0.6127300566077911  0.4998484404208030  0.4311549470228080
  0.6126450308778679  0.4975155300447820  0.5725351249737667
  0.3857170890911482  0.4986550499834246  0.4274445468628746
  0.3880984161296268  0.4969757812587861  0.5691105580943594
  0.4339274952672115  0.6105770727043378  0.5069151126760119
  0.5684278302443935  0.6128526298493082  0.5026316095135930
  0.4290286846429457  0.3863924351637330  0.4986770115253229
  0.5669416684447492  0.3905704153427704  0.5014100077377609
  0.5003152620730889  0.4326778037515219  0.6092237731510999
  0.5009949351064108  0.5661863128163962  0.6114833892770380
  0.4955707062299557  0.4344604201441956  0.3901822392070372
  0.5018027814143137  0.5004024946782994  0.7241191219635457
  0.5015549565133438  0.5692896389461546  0.3964974896877177
  0.7227699135997206  0.5006839736151986  0.5009761332715487
  0.7229677675111377  0.4979596424630374  0.6382649227034077
  0.2768015401462899  0.5016257041546565  0.3601618343453996
  0.2748833937639604  0.5028804531508942  0.5003205878131358
  0.2783382108468347  0.4992676767067519  0.6371385275231781
  0.3607405768308750  0.7274761408227196  0.4933852740659669
  0.4995430998479096  0.7189286181202933  0.5041010802814890
  0.6370975590068010  0.7247898718876612  0.4944960976641211
  0.3667566896594227  0.2802892849223331  0.4920453795976768
  0.4938644296216732  0.2825073004048402  0.4986699611273226
  0.6393487022168091  0.2831481305766361  0.4925277222433092
  0.7226871012427198  0.4945872952189806  0.3600782302051726
  0.5659472889619196  0.3212485885813897  0.3951086889137673
