Pt
 1.0000000000000000
    19.9354000000000013    0.0000000000000000    0.0000000000000000
     0.0000000000000000   19.9354000000000013    0.0000000000000000
     0.0000000000000000    0.0000000000000000   19.9354000000000013
 Pt 
  43
Direct
  0.2916868078894830  0.4009802512114128  0.4035418747554601
  0.6023963953570031  0.3947802316482237  0.5013150270373306
  0.6010241665579822  0.3931548777551491  0.7037625344863909
  0.5043637524203176  0.5001303083961194  0.2958914980386648
  0.4961700893887255  0.5999741816065892  0.3893412371961435
  0.6033674709311074  0.4933977978871755  0.3940568405951222
  0.5884098859315589  0.5971197788858010  0.3060795138296698
  0.5040500346117960  0.5027427159725913  0.4977922404366101
  0.5021538012781284  0.5944803856456353  0.6029153270062301
  0.5977774275911192  0.3033353010223020  0.5995028662580133
  0.6017021218535871  0.4977583093391655  0.5966081528336526
  0.4986875663392758  0.5057487840725543  0.6899118823800876
  0.6038808722172617  0.5957052609930074  0.6997143217592824
  0.5862265116325731  0.6988925710043440  0.4052464836421641
  0.5007005016202333  0.6997870742498269  0.5042629061869839
  0.5985158301313241  0.6963780756844608  0.6009102064668880
  0.7010651524423889  0.4043503681892513  0.3969267263260330
  0.6924338688965357  0.4043169316893566  0.6010929070899003
  0.6931126418331208  0.5944336737662649  0.4012775750674679
  0.6059092955245442  0.5942630065110306  0.4966027508853596
  0.6952636410606257  0.5049711287458490  0.4980686045928348
  0.4975362009290006  0.3926044940156705  0.6019569163397774
  0.5986289053643267  0.4055725628780962  0.2978241956519558
  0.4008158752771452  0.3036062557059301  0.4005610607261454
  0.4062830658025422  0.4012291531647220  0.3029685955636706
  0.3032949943316913  0.3959372252375172  0.6015612428142901
  0.4009380278298905  0.2963482864652828  0.6011459960672972
  0.3955047152301935  0.3984822928057625  0.4978624717838618
  0.4082883659219278  0.3993753132618357  0.6986757752540705
  0.2990416289615457  0.6089917067126819  0.3985192807769093
  0.3991087016061879  0.5048784784855082  0.4015149598202193
  0.5023461831716444  0.2997606157889984  0.4993335473579661
  0.3976520636656400  0.6031077821363002  0.3057406382615849
  0.2991055890526400  0.6074611986717096  0.5955080605355297
  0.4022310211984710  0.5022102671629362  0.6003766154679614
  0.4008378321979995  0.5976490654815052  0.4990881662770749
  0.3966800239774471  0.5972647466316201  0.6989373847527512
  0.4014175346368771  0.7013307693851139  0.3963958832027448
  0.4031575328310443  0.6941853516859455  0.6044072423929291
  0.5065169547638873  0.3995984795890727  0.4014292289093773
  0.5986120027689436  0.2997026656099200  0.3985611434934839
  0.2958296552865756  0.5037319406683587  0.4931520847336898
  0.6968449326324027  0.6019911669693108  0.5951042351796302
