Pt
 1.0000000000000000
     7.9522257907087335    0.0325339630651659    0.0633979037296414
    -0.0133129375934767    7.9342219750202778    0.0397206213332091
     0.0554129277548955    0.0232277553163277    7.9591990269545860
 Pt 
  32
Direct
  0.1234043592955504  0.1237799621633902  0.1250844616314069
  0.6271576275332805  0.8793983533086219  0.8755760948448109
  0.6176713407019525  0.6283273012225823  0.6366233993949039
  0.8802770539904398  0.8774807869359218  0.1352122247937342
  0.8705342575787660  0.6276635636264690  0.3741545859230339
  0.6233945118228861  0.8708097775904075  0.3730602651434217
  0.6192276635989189  0.6301181758526604  0.1216011756284143
  0.8667757494019545  0.3680938973325715  0.6170841952236609
  0.8708734891265747  0.1293112315260869  0.8811561427428664
  0.6322574001713065  0.3693189821649195  0.8770075598223480
  0.6264147245837037  0.1201967724491050  0.6248349441030336
  0.8696441455532014  0.3767506334136799  0.1275596679384423
  0.8701373590661754  0.1317736798357409  0.3828349702929605
  0.6222674854405987  0.3785378597760438  0.3780476021123969
  0.6314922658024296  0.1257693480304053  0.1233166521096224
  0.3739695947150616  0.8764530768706867  0.6208776629555606
  0.3799508196160649  0.6242230628679377  0.8736428066517333
  0.1229756253580871  0.8767514369890734  0.8843087624111785
  0.1221888278600262  0.6288943371626753  0.6194917722161879
  0.3667660555100543  0.8813617813888350  0.1293802529447968
  0.3780438747497982  0.6268041549003414  0.3774262548483566
  0.1237291017722223  0.8708276022495558  0.3735308742517254
  0.1191761015498655  0.6328927280183324  0.1277484027160905
  0.3768881859775947  0.3783715865343076  0.6206164512067257
  0.3697245309390038  0.1244007743584518  0.8661227857706801
  0.1230376537050790  0.3765850738672546  0.8796768649515032
  0.1256561578828021  0.1266005306839665  0.6263977900760285
  0.3767599616205358  0.3759617441857780  0.1286281346502712
  0.3818425347231330  0.1200028775475491  0.3741197053625041
  0.1249670139104496  0.3766509874917295  0.3784470688360603
  0.8695310786217640  0.6161202439874586  0.8818204180736470
  0.8794770782411098  0.8740287894676804  0.6267289639808297
