Pt
 1.0000000000000000
     7.9232736542061568    0.0106652196795152   -0.0009382573365286
     0.0053720560251284    7.9440500279590376   -0.0003975883173304
     0.0138848307837980   -0.0085095485881455    7.9332510593989660
 Pt 
  32
Direct
  0.1256364322667092  0.1255270763083558  0.1265242445862294
  0.6257578441956293  0.8747304986476320  0.8746053960179282
  0.6266419756822869  0.6235666704080023  0.6239167407150337
  0.8765945973824083  0.8751182021226476  0.1231889071413861
  0.8765227973515618  0.6259240579815251  0.3745449553771406
  0.6253192997936800  0.8776628638329192  0.3745434484140771
  0.6249533937874028  0.6248005381620833  0.1259335766662394
  0.8755398308633209  0.3748459416124833  0.6276663827671883
  0.8762909490339540  0.1257682613132579  0.8733031135066761
  0.6248346733931995  0.3773672766421400  0.8739880309627135
  0.6238539402665821  0.1255180864625250  0.6255417120805377
  0.8743132145636818  0.3763675443509317  0.1255041574597636
  0.8787995074052100  0.1261375782805426  0.3738344089588598
  0.6235755938838157  0.3752504478801186  0.3772187955686244
  0.6254103007010384  0.1251940245663395  0.1235003939934265
  0.3748302032734506  0.8743469927606192  0.6239906490130451
  0.3761440457646779  0.6252768496685216  0.8772573413563842
  0.1277617326686712  0.8749625483066543  0.8752653806466546
  0.1264152203071604  0.6246686093432585  0.6271096003012533
  0.3756483864958169  0.8759875288916547  0.1269228251725698
  0.3747734609253589  0.6253340323271900  0.3769575142730320
  0.1268503666815418  0.8739876003824182  0.3731512016173178
  0.1261144433163397  0.6251703486854391  0.1242538526573925
  0.3744712517322574  0.3755394117758373  0.6235198878045884
  0.3765430236204530  0.1267800697564203  0.8725422602538262
  0.1245376208202161  0.3756348091317883  0.8744232426792325
  0.1244317470924448  0.1250970042650573  0.6257208701627949
  0.3756403496965013  0.3740731451093460  0.1266865925332841
  0.3774525992402908  0.1251279533978196  0.3759995662243494
  0.1258639577981205  0.3742991543819794  0.3762813690632066
  0.8734075959523211  0.6244291438604240  0.8757187935690539
  0.8750104859716242  0.8758906489554057  0.6251322644102746
