Pt
 1.0000000000000000
    21.5463013567337569    0.0000000000000000    0.0000000000000000
     0.0000000000000000   21.5463013567337569    0.0000000000000000
     0.0000000000000000    0.0000000000000000   21.5463013567337569
 Pt 
  55
Direct
  0.4914088824201362  0.5004572340036468  0.5028273386983926
  0.5037472353280665  0.5025376578897628  0.2764273705908512
  0.5019927731874828  0.6322558143252992  0.2816171606224963
  0.6127895582354149  0.4294693946210892  0.6765329519279369
  0.6166821845665595  0.5635981739485356  0.6760782246948130
  0.6095506557043228  0.4368624644274863  0.3123440950990297
  0.6148054155874901  0.5649325988005770  0.3214136586758395
  0.3769410445687362  0.4314183119459124  0.6836259832315317
  0.3898831628183193  0.5691589654744814  0.6831656712811978
  0.3883115566554166  0.4290918119508525  0.3220704043402445
  0.3911200089738972  0.5720318993936320  0.3174852893191402
  0.6731204859653266  0.6143094149132649  0.4330044115476113
  0.4897261458149198  0.3608718193097201  0.2831955906944107
  0.6737485106910538  0.6060645334805415  0.5691888425280575
  0.3187587988438468  0.6130569929985604  0.5643765084627681
  0.6823957679123852  0.3843453919487630  0.4276278729908536
  0.6777846623516181  0.3959143297387331  0.5718828371510306
  0.3251386107532834  0.3856344215385826  0.4220975493391443
  0.3208521070758838  0.3832375451956339  0.5722485699916481
  0.4316991801051294  0.6845678910635995  0.6117629198516960
  0.5704077357183632  0.6823556821461231  0.6113062145528571
  0.4258534301587872  0.3253592398033136  0.5992946912888367
  0.5630711331440844  0.3271349561718236  0.6071227183458930
  0.4326206282771979  0.6824590098571367  0.3867780563365940
  0.5707782549953297  0.6794224265049990  0.3873204538370516
  0.3172957314951602  0.6153644303251279  0.4297564912274897
  0.4254577037712819  0.3221027801985624  0.3908126429953772
  0.5035654319672417  0.6308044366859427  0.7155813819146017
  0.5040374981391381  0.3632075385204918  0.7168291422403710
  0.6110701132417422  0.5024371770710758  0.4316128706281936
  0.6161285517270991  0.5006875268932639  0.5703037048704285
  0.3913842209101245  0.4957912475619145  0.4334377323225053
  0.3896532013080830  0.4957218467874966  0.5699665588387394
  0.4269345604936100  0.6089110002120963  0.4980222833765592
  0.5756754741631580  0.6097372547838322  0.4996742383645960
  0.4297573090012555  0.3980042081477681  0.4981802571254474
  0.5671821240994911  0.3937487747681851  0.5009519653184796
  0.4973778771849758  0.4348686451965780  0.6151769494237371
  0.4952419913436865  0.5719094370760252  0.6044290328246951
  0.4982730011174169  0.4388965801336747  0.3855286618556434
  0.4964564313334912  0.5004258411446684  0.7112183384184789
  0.5016144906291422  0.5705015309348387  0.3900332210555299
  0.7180084439487850  0.4979189760866839  0.4999162891887097
  0.7223917563529106  0.5021307332925971  0.6331286420876437
  0.2809417996981745  0.4955195401396951  0.3676144382675950
  0.2844997848358901  0.4991787700323170  0.5008726435837789
  0.2776355728511367  0.4988254369997025  0.6351320174830459
  0.3622681164978960  0.7262361349601055  0.4970874101625212
  0.5021707717189478  0.7204089872784102  0.4993833745222947
  0.6346334339989417  0.7142376194970697  0.5022603369750930
  0.3614802991496209  0.2806565479559733  0.4999897635161030
  0.5026669589681184  0.2731908243806494  0.5012167095966533
  0.6383103518461545  0.2716869894781512  0.5043806883636492
  0.7218553951552896  0.4982745610139135  0.3622433113124885
  0.5739759926886470  0.3208300104760026  0.3884445975867830
