Pt
 1.0000000000000000
    11.2223935179574195    0.0000000000000000    0.0000000000000000
     0.0000000000000000    7.9354305576916460    0.0000000000000000
     0.0000000000000000    0.0000000000000000   14.2083975692340321
 Pt 
  32
Direct
  0.0000000000000000  0.1250000000363615  0.4506348558168317
  0.1250000000227512  0.8750000002545306  0.5493651442370778
  0.1250000000227512  0.3750000001090845  0.5493651442370778
  0.5000000000910048  0.6250000001818076  0.6480954326573241
  0.5000000000910048  0.1250000000363615  0.6480954326573241
  0.0000000000000000  0.6250000001818076  0.6480954326573241
  0.0000000000000000  0.1250000000363615  0.6480954326573241
  0.8750000001592582  0.8750000002545306  0.5493651442370778
  0.8750000001592582  0.3750000001090845  0.5493651442370778
  0.3750000000682535  0.8750000002545306  0.5493651442370778
  0.3750000000682535  0.3750000001090845  0.5493651442370778
  0.7500000001365070  0.6250000001818076  0.6480954326573241
  0.7500000001365070  0.1250000000363615  0.6480954326573241
  0.2500000000455024  0.6250000001818076  0.6480954326573241
  0.2500000000455024  0.1250000000363615  0.6480954326573241
  0.8750000001592582  0.8750000002545306  0.3519045673965856
  0.8750000001592582  0.3750000001090845  0.3519045673965856
  0.3750000000682535  0.8750000002545306  0.3519045673965856
  0.3750000000682535  0.3750000001090845  0.3519045673965856
  0.7500000001365070  0.6250000001818076  0.4506348558168317
  0.7500000001365070  0.1250000000363615  0.4506348558168317
  0.2500000000455024  0.6250000001818076  0.4506348558168317
  0.2500000000455024  0.1250000000363615  0.4506348558168317
  0.6250000001137559  0.8750000002545306  0.3519045673965856
  0.6250000001137559  0.3750000001090845  0.3519045673965856
  0.1250000000227512  0.8750000002545306  0.3519045673965856
  0.1250000000227512  0.3750000001090845  0.3519045673965856
  0.5000000000910048  0.6250000001818076  0.4506348558168317
  0.5000000000910048  0.1250000000363615  0.4506348558168317
  0.0000000000000000  0.6250000001818076  0.4506348558168317
  0.6250000001137559  0.3750000001090845  0.5493651442370778
  0.6250000001137559  0.8750000002545306  0.5493651442370778
