Pt
 1.0000000000000000
     7.8924565108449061    0.1217866698663389   -0.1011097031470073
     0.0103096340174390    7.8857802144311933   -0.0148456962951153
    -0.0952507924374481   -0.1025262545566958    7.9765891032841232
 Pt 
  32
Direct
  0.1464618140176264  0.1312079244648610  0.1235162775440156
  0.6212318709101251  0.8680677262929346  0.8777114891124085
  0.6457006900805061  0.6025834793517273  0.6194129110133727
  0.8717459040781131  0.8926241359918673  0.1335195674014458
  0.8622342060749015  0.6116772704899134  0.3756513881822071
  0.6338815330729611  0.8676717477524950  0.3550497597681615
  0.6119196469913142  0.6308933254761332  0.1350207276087874
  0.8923825909443451  0.3730147910003097  0.6250086169177388
  0.8678756688488238  0.1200382327924344  0.8644049183321780
  0.6103400329287091  0.3687366583134766  0.8626720535419372
  0.6050030825167418  0.1294581097522350  0.6365668134724464
  0.8578445534474968  0.3893451983417118  0.1279170213611480
  0.8749887289992814  0.1130035597413356  0.3628817731105810
  0.6129204013991406  0.3600481686871908  0.3862465241356952
  0.6272889128889082  0.1141289334340180  0.1388558762288299
  0.3533885972217922  0.8663096535005199  0.6249383228379726
  0.3848655575417175  0.6253090135066490  0.8727416367872676
  0.1209764567209820  0.8657636517934798  0.8709323857492499
  0.1324828380501118  0.6261463101326642  0.6209035697156235
  0.3655993519416174  0.8744944585046618  0.1078684297194177
  0.3831320728936743  0.6359484806507903  0.3636395921365965
  0.1562574053766088  0.8778681959645720  0.3904416466951172
  0.1418234483118533  0.6356193668154771  0.1171212415156864
  0.3586791755685381  0.3741979151381586  0.6110937934062879
  0.3544107017123558  0.1269168610976049  0.8859361111013377
  0.1307139987215322  0.3395836080004249  0.8765431850865166
  0.1043817269696417  0.1187364384420896  0.6196005130184408
  0.3630503100961666  0.3691754282684908  0.1425103864132758
  0.3611788622058600  0.1339789083597388  0.3782906701915628
  0.1164830522001944  0.3853950296290920  0.3854445145140160
  0.8802871494468170  0.6240660779082774  0.8693170399075036
  0.8746851545565502  0.8881802907646760  0.6104463308974416
