Au                                      
   1.0000000000000000     
    -0.0067119939965524    6.1873443078032473    6.2804801581894303
     6.1190342274928886   -0.0866897622437920    6.1304647260463740
     6.3303540852952169    6.1174056622313957    0.0526627284048508
   Au
    27
Direct
  0.9813134039483060  0.9977981136609273  0.0209974358088587
  0.9905805174059594  0.9685144552744873  0.3515612542915534
  0.9926935323148385  0.0069716538702735  0.6646977520819206
  0.0057609322033016  0.3343181434792228  0.9871296779957177
  0.0030261307918096  0.3482393987972046  0.3244830941671211
  0.9954235554824038  0.3124614566616373  0.6829329160100812
  0.9967524040478395  0.6511792267205720  0.0135103557348515
  0.9858448820093173  0.6864985271328337  0.3277823449250192
  0.0221100941476067  0.6490966010025119  0.6429548409922319
  0.3494708824385455  0.9954067886150497  0.9949007076979370
  0.3225288776596358  0.0189967391289088  0.3368736260588747
  0.3341173065146137  0.0062272355665201  0.6676843188913324
  0.3463795761260826  0.3466536928560231  0.0021777969726386
  0.3283726506979008  0.3406419893331147  0.3154195288771788
  0.3348795800427240  0.3451520778921164  0.6709130838801443
  0.3473462709741710  0.6425901263745217  0.0209703164723720
  0.3494627732386917  0.6578279377175065  0.3314780527389232
  0.3244011650593634  0.6645398551682433  0.6862412845840211
  0.6839233617944771  0.9947971017522903  0.9926863019954624
  0.6766919121244328  0.0125941037062631  0.3159049041275210
  0.6557010753775359  0.0184932808747575  0.6575946853747041
  0.6649106879112594  0.3283786548996943  0.0114830160614687
  0.6595370284200825  0.3395005017830712  0.3190514291460005
  0.6870800365328833  0.3339270257267728  0.6562240928707226
  0.6689121785520697  0.6488713334328651  0.0087094553115250
  0.6573676164549695  0.6602636557776904  0.3288921236583207
  0.6608073284649549  0.6736100369771094  0.6594503445349034

  0.00000000E+00  0.00000000E+00  0.00000000E+00
  0.00000000E+00  0.00000000E+00  0.00000000E+00
  0.00000000E+00  0.00000000E+00  0.00000000E+00
  0.00000000E+00  0.00000000E+00  0.00000000E+00
  0.00000000E+00  0.00000000E+00  0.00000000E+00
  0.00000000E+00  0.00000000E+00  0.00000000E+00
  0.00000000E+00  0.00000000E+00  0.00000000E+00
  0.00000000E+00  0.00000000E+00  0.00000000E+00
  0.00000000E+00  0.00000000E+00  0.00000000E+00
  0.00000000E+00  0.00000000E+00  0.00000000E+00
  0.00000000E+00  0.00000000E+00  0.00000000E+00
  0.00000000E+00  0.00000000E+00  0.00000000E+00
  0.00000000E+00  0.00000000E+00  0.00000000E+00
  0.00000000E+00  0.00000000E+00  0.00000000E+00
  0.00000000E+00  0.00000000E+00  0.00000000E+00
  0.00000000E+00  0.00000000E+00  0.00000000E+00
  0.00000000E+00  0.00000000E+00  0.00000000E+00
  0.00000000E+00  0.00000000E+00  0.00000000E+00
  0.00000000E+00  0.00000000E+00  0.00000000E+00
  0.00000000E+00  0.00000000E+00  0.00000000E+00
  0.00000000E+00  0.00000000E+00  0.00000000E+00
  0.00000000E+00  0.00000000E+00  0.00000000E+00
  0.00000000E+00  0.00000000E+00  0.00000000E+00
  0.00000000E+00  0.00000000E+00  0.00000000E+00
  0.00000000E+00  0.00000000E+00  0.00000000E+00
  0.00000000E+00  0.00000000E+00  0.00000000E+00
  0.00000000E+00  0.00000000E+00  0.00000000E+00
