Au
 1.0000000000000000
    -0.0067119939965524    6.1873443078032473    6.2804801581894303
     6.1190342274928886   -0.0866897622437920    6.1304647260463740
     6.3303540852952169    6.1174056622313957    0.0526627284048508
 Au 
  27
Cartesian
  0.1195732100000000  0.0130203100000000 -0.1297536000000000
  2.0329093199999999  2.0950907000000001 -0.2336657200000000
  4.2504809600000000  4.0204137900000001  0.0318561500000000
  1.9641918000000000 -0.0720700700000000  2.0850292200000000
  4.1849613699999999  1.9735296400000000  2.1709630700000000
  6.2352002400000002  4.1223744399999998  1.9227567800000001
  4.0701351099999998  0.0061037600000000  3.9723463099999998
  6.2757813000000002  1.8580825900000000  4.1369159800000004
  8.0418277200000006  4.0137483200000004  4.1519855799999998
 -0.0627319900000000  2.1315004200000001  2.1664178800000000
  2.2466062199999999  4.0547430200000001  2.1598357400000001
  4.2625402299999999  6.1512548100000002  2.1717550399999999
  2.1326471400000000  2.1264408399999999  4.3006929800000000
  4.0789132600000002  3.9317736900000000  4.1672424699999997
  6.3568670500000000  6.1463416100000003  4.2544793099999998
  4.0624491200000001  2.2217289199999999  6.1219818200000002
  6.1212995200000000  4.1330052700000000  6.2450415200000000
  8.4083150599999996  6.1475892200000004  6.1474725599999998
 -0.0827255000000000  4.1873794999999996  4.2630857600000001
  2.0723117000000002  6.1183525200000002  4.3437942500000002
  4.2715671600000000  8.0782185900000005  4.2661207299999999
  2.0775889099999998  4.1558105599999999  6.1896768700000004
  4.0926969000000000  6.0031184800000004  6.2403071900000002
  6.1928300900000002  8.2366416800000000  6.3968789399999997
  4.0211100999999996  4.1358187300000004  8.1794311499999992
  6.1177672599999999  6.0220882199999997  8.1936276800000005
  8.2919617199999998  8.0643726400000002  8.3144583399999998
Cartesian
  0.0000000000000000  0.0000000000000000  0.0000000000000000
  0.0000000000000000  0.0000000000000000  0.0000000000000000
  0.0000000000000000  0.0000000000000000  0.0000000000000000
  0.0000000000000000  0.0000000000000000  0.0000000000000000
  0.0000000000000000  0.0000000000000000  0.0000000000000000
  0.0000000000000000  0.0000000000000000  0.0000000000000000
  0.0000000000000000  0.0000000000000000  0.0000000000000000
  0.0000000000000000  0.0000000000000000  0.0000000000000000
  0.0000000000000000  0.0000000000000000  0.0000000000000000
  0.0000000000000000  0.0000000000000000  0.0000000000000000
  0.0000000000000000  0.0000000000000000  0.0000000000000000
  0.0000000000000000  0.0000000000000000  0.0000000000000000
  0.0000000000000000  0.0000000000000000  0.0000000000000000
  0.0000000000000000  0.0000000000000000  0.0000000000000000
  0.0000000000000000  0.0000000000000000  0.0000000000000000
  0.0000000000000000  0.0000000000000000  0.0000000000000000
  0.0000000000000000  0.0000000000000000  0.0000000000000000
  0.0000000000000000  0.0000000000000000  0.0000000000000000
  0.0000000000000000  0.0000000000000000  0.0000000000000000
  0.0000000000000000  0.0000000000000000  0.0000000000000000
  0.0000000000000000  0.0000000000000000  0.0000000000000000
  0.0000000000000000  0.0000000000000000  0.0000000000000000
  0.0000000000000000  0.0000000000000000  0.0000000000000000
  0.0000000000000000  0.0000000000000000  0.0000000000000000
  0.0000000000000000  0.0000000000000000  0.0000000000000000
  0.0000000000000000  0.0000000000000000  0.0000000000000000
  0.0000000000000000  0.0000000000000000  0.0000000000000000
