Pt
 1.0000000000000000
    11.1919446537100633   -0.0967226470046847    0.0195085134567415
     5.5717534127290858    9.7455149782621042   -0.0059600032408745
    -0.0082849294400319    0.1001737112098430   14.5426294388444326
 Pt 
  48
Direct
  0.5090813283583472  0.0037478084035270  0.3444200107049814
  0.5808655666933945  0.3367149221174225  0.4962734001201473
  0.5860872269022379  0.8360322034165574  0.5010191461406002
  0.0874483700599874  0.0719200277254949  0.5004891980849779
  0.0822550466762700  0.5812166962690263  0.4977436308989540
  0.5801402101643206  0.0828099007894439  0.4980103828290752
  0.5907252238755798  0.5706255453601247  0.5021311221487539
  0.1718329488694676  0.1644461377964730  0.6515255135918370
  0.1637327390816035  0.6723841323261543  0.6550433282594211
  0.6671387461412002  0.1801134869245282  0.6565268476316101
  0.0881198093069913  0.8346774002126999  0.4989060983803216
  0.6801313659325170  0.6534218878932169  0.6550820534021561
  0.1709374752364156  0.9175975566202361  0.6564328327638332
  0.6598059179273696  0.4139361279342247  0.6569022877333506
  0.6688627017582504  0.9239043653589937  0.6565342255432249
  0.4132828162330404  0.1690247450108171  0.6565807830557535
  0.4099764533734043  0.6610507190016104  0.6585095387007951
  0.9173132517212504  0.1619818953036314  0.6595688444818063
  0.9234795034197436  0.6610543866502920  0.6550515568059677
  0.4289400679261996  0.4119913669795521  0.6627738970677518
  0.4117845942068242  0.9209406032152755  0.6569743940640237
  0.1608635807030590  0.4125403978478602  0.6601023778504607
  0.0881963201286630  0.3294506410864810  0.4971336654208932
  0.8457183305145650  0.5871390767286417  0.4996460484622007
  0.8360763954757513  0.0841685256005690  0.4963366588846334
  0.4926070393765600  0.5069509148887162  0.3428925820470726
  1.0044447045041047  0.0035536430278269  0.3437257022679656
  1.0137131753456707  0.4822904039929656  0.3448173699492128
  0.4977153324462935  0.2442537348774003  0.3370233792590031
  0.4908025546068746  0.7576153334087921  0.3382173060439430
  1.0021480301896402  0.2471850313062993  0.3435913949583607
  0.9920392598940700  0.7440665889433206  0.3442126218701224
  0.2511925523532750 -0.0081281212810347  0.3424200406139686
  0.2547140593373536  0.4984976340612973  0.3434028574998329
  0.7612942598738434 -0.0078718421779501  0.3440739231872651
  0.7533872180531910  0.5029293800721173  0.3549030880390602
  0.2436151428795483  0.2584382461849760  0.3430875416631779
  0.2521103418095791  0.7431359772226389  0.3394970823948323
  0.7589812356595257  0.2423973069385843  0.3377741352581680
  0.7559210945913428  0.7445238046508772  0.3444631219208600
  0.3335219438953623  0.3394112869536373  0.4986298685209319
  0.3365249292748533  0.8375475399619990  0.4976695545586537
  0.8369829018171194  0.3249576322637114  0.5042577401271514
  0.8280938105219606  0.8306585211603069  0.4948449541738437
  0.3339197162563869  0.0810540922286270  0.5016866039291752
  0.3276998497688481  0.5745605966353060  0.5018107630932604
  0.9119296210050226  0.4187007912182337  0.6593259229433778
  0.9280564294980631  0.9141283947623441  0.6631954673265915
