Pt
 1.0000000000000000
    11.2210511191581084   -0.0093175340611779    0.0093096360160587
    -0.0229795501232496    7.9180926052428875   -0.0206934504125525
     0.0192844214372160   -0.0233052631755483   14.2189301149150022
 Pt 
  32
Direct
  0.0021350358466904  0.1253260123497192  0.4488088498670770
  0.1265097747278001  0.8771578520820871  0.5481960435535517
  0.1251582633484329  0.3741257151537236  0.5504152478989240
  0.5013091914283281  0.6277465172647717  0.6504737037578623
  0.4999394372365094  0.1229541751008233  0.6481682614268768
 -0.0012003170002728  0.6228690157662304  0.6467162226193006
 -0.0009525784232758  0.1267306375400883  0.6467689093341507
  0.8738841288883851  0.8765795514759116  0.5512149429653354
  0.8740554013036921  0.3716640063313960  0.5492522911304727
  0.3757595393076669  0.8765099504797078  0.5487929877699164
  0.3759871496004767  0.3718469546830580  0.5499791608656516
  0.7494001915686767  0.6238512696117401  0.6500528554256771
  0.7486066748592937  0.1265797614831082  0.6491690339396909
  0.2519827026963273  0.6266328355876124  0.6471385514873295
  0.2488282295228679  0.1272540291302473  0.6487608153455903
  0.8747511555591787  0.8804802970544243  0.3510900271791148
  0.8767677361912090  0.3758774102117631  0.3530635534096133
  0.3737688966646818  0.8714397974778546  0.3520789203825752
  0.3766977858646559  0.3773550375734968  0.3542096070365000
  0.7507933991343539  0.6252688515658437  0.4512417098087372
  0.7524690073561640  0.1238217944400578  0.4513177662263058
  0.2489235717742104  0.6267459280808223  0.4516638394050764
  0.2454046137974852  0.1248258747212572  0.4510581857132906
  0.6265311641491356  0.8718897637905825  0.3523545618418855
  0.6248417097255746  0.3766090233671778  0.3502946530442629
  0.1245670322830834  0.8768369411527829  0.3497155178233470
  0.1256222311394445  0.3740780598970721  0.3534489344781137
  0.4986513238618367  0.6239096284779796  0.4512184572807498
  0.5005361655561240  0.1235391111952380  0.4505866319883538
 -0.0013672029576541  0.6264013568882019  0.4471041915390285
  0.6244834847552114  0.3757767751288312  0.5456376155884626
  0.6233412727727884  0.8745615774167803  0.5487110502138040
