Pt
 1.0000000000000000
     7.9917860330628923    0.0794740930082980   -0.0396394527323000
    -0.1460905383754495    7.9962183601874424   -0.0644525837360045
     0.0251145605572628    0.0558142839612058    7.8957665177390250
 Pt 
  32
Direct
  0.1179412105235731  0.1326417866236090  0.1263092390914027
  0.6239150696476707  0.8673492151876803  0.8845038051900694
  0.6253994819513823  0.6166330216214861  0.6251642400486713
  0.8720051848607804  0.8865525548368872  0.1305435107242455
  0.8805836730031527  0.6236154830242820  0.3842556903380077
  0.6340288734549977  0.8860729255795898  0.3768473384195763
  0.6306838210585298  0.6279777906446229  0.1208172088810593
  0.8737735390426815  0.3661432465224885  0.6209528767270894
  0.8778538376447109  0.1277547332538801  0.8734697527911193
  0.6174538758768385  0.3712850039468791  0.8885879079341217
  0.6274273595620276  0.1266577281526574  0.6188189815408848
  0.8773254889727077  0.3833140141703279  0.1411850892933558
  0.8837367182849976  0.1266635165905299  0.3811975612525436
  0.6215799678791403  0.3703615468689848  0.3663887339967412
  0.6379461244201478  0.1286447400039131  0.1215423352458514
  0.3665913909036431  0.8788905888256415  0.6318482695979539
  0.3704864341619858  0.6268379638317521  0.8708125943694421
  0.1232781875350626  0.8726451888764619  0.8688592452148738
  0.1285372829361619  0.6189930532550147  0.6226008162860286
  0.3761681272300391  0.8752042128266748  0.1241566362568638
  0.3799066728502376  0.6237230907732513  0.3684926182658232
  0.1235391821656243  0.8733004595766287  0.3812009258135309
  0.1349765643590711  0.6226127730940719  0.1302604271194112
  0.3776280188868730  0.3750420075710895  0.6184305606595888
  0.3667009420400566  0.1362590849649562  0.8786057046085106
  0.1304723511300497  0.3719178283844087  0.8581568556199687
  0.1280445581672216  0.1258111820135862  0.6305398697858646
  0.3772944771334864  0.3711661800235156  0.1166181806189097
  0.3723071099397018  0.1233835401932937  0.3825022765373178
  0.1071972356249520  0.3707095257581717  0.3802938827736622
  0.8845645733866525  0.6155179130509141  0.8796976683419367
  0.8894400196957275  0.8670484552925556  0.6122535548545009
