Pt
 1.0000000000000000
     7.9673809414635439    0.0897195567333381    0.0322291051257867
    -0.0390268133317437    7.9471987064630341    0.0192423009106592
     0.1074827019914170    0.0048617008766171    7.8229677941349989
 Pt 
  32
Direct
  0.1234545470975832  0.1126240346954459  0.1261101669877242
  0.6253225992013455  0.8797980714515249  0.8801463324626470
  0.6283499521857749  0.6183077466417917  0.6250809307031852
  0.8849812802951985  0.8777436603858956  0.1440276576994432
  0.8795213834648071  0.6147887311136859  0.3810667769010017
  0.6192020484603700  0.8689107842534836  0.3928102697309809
  0.6255189282970238  0.6151483804443099  0.1247106085738918
  0.8742829080079196  0.3856147770870490  0.6237688109019487
  0.8671021067858284  0.1453250562373957  0.8750094870281280
  0.6344472824515837  0.3705606656469907  0.8704296005293715
  0.6225841310989195  0.1357862329002190  0.6204687094168054
  0.8638261984022090  0.3640884506196427  0.1343568020188413
  0.8596287641549797  0.1228991399865206  0.3730858900052952
  0.6220085140535533  0.3706797946570632  0.3683005741403185
  0.6377752879378793  0.1229011336979585  0.1242699085800132
  0.3859613060462709  0.8825438110691610  0.6105494876885968
  0.3702613706068775  0.6094020808125055  0.8769000217911082
  0.1298433027644987  0.8693928740100786  0.8868527290187020
  0.1236905172831209  0.6319870495444561  0.5987120660074675
  0.3704160260301990  0.8737435438176360  0.1148583888382561
  0.3785795700064831  0.6371265011115689  0.3733864648627537
  0.1303596690727795  0.8839547738302245  0.3539549559244999
  0.1103773340082439  0.6195602727565453  0.1061472735092463
  0.3866084085082047  0.3746789407510817  0.6075819467901077
  0.3816924774490860  0.1267751792158171  0.8660754633237314
  0.1233018250834055  0.3699625002527211  0.8722999560189554
  0.1284989858761947  0.1239668874731715  0.6063166472550189
  0.3870066758071270  0.3895747212239400  0.1112022368033082
  0.3803829669899733  0.1445069563778497  0.3724091748421482
  0.1361617560901369  0.3664992173307261  0.3704262674324201
  0.8866002480328836  0.6134061895893611  0.8768787743270471
  0.8529529480207517  0.8873705164784148  0.6424847924136591
