Pt
 1.0000000000000000
     7.9316889971098750    0.0372452358722819   -0.0164325651349368
     0.0141134785674471    7.9343420427036726   -0.0027905276930348
     0.0135028135233411   -0.0178437140286696    7.9647235519027957
 Pt 
  32
Direct
  0.1218229794622963  0.1237891479060495  0.1212968478811135
  0.6247276463985331  0.8723293115487672  0.8753760694150774
  0.6285318955674284  0.6245362130943669  0.6222718785672334
  0.8749782659907679  0.8775340004158165  0.1270007632638588
  0.8752135850383252  0.6214000930508055  0.3735836628881342
  0.6270180677754049  0.8757462675338290  0.3739824037884548
  0.6269476374313699  0.6231891286085713  0.1309176053148206
  0.8766277835846437  0.3753619518643913  0.6273382583229449
  0.8745477788796500  0.1291673756307725  0.8733656734158655
  0.6272094610000272  0.3792090314752716  0.8682679905409619
  0.6194397893463349  0.1286778503111500  0.6237904694888542
  0.8783322339582067  0.3766149829353790  0.1178344508843513
  0.8751703100423208  0.1279389125760546  0.3700382983786533
  0.6245841583181057  0.3726555775485048  0.3786964237889140
  0.6228759389654643  0.1303790093077451  0.1190327472756545
  0.3748814358530966  0.8743381198218712  0.6252028655984351
  0.3717471368865313  0.6276232683439374  0.8752832943569318
  0.1234910321336138  0.8764727190771949  0.8723596921532787
  0.1263031648775822  0.6231497145445690  0.6262210971939349
  0.3761201976375452  0.8756158535672813  0.1258827445046169
  0.3760611662847023  0.6200893830929798  0.3722873690320344
  0.1263954943637059  0.8757623224595534  0.3815519850003104
  0.1209831225951655  0.6276611446997727  0.1258467770182606
  0.3759034648470431  0.3729422518243686  0.6256489734237775
  0.3752860127108802  0.1260223087046785  0.8736111950713191
  0.1236239881402419  0.3762180901230029  0.8762690469739033
  0.1227294658362802  0.1224348661985063  0.6238014270613429
  0.3749666138044038  0.3768952311832734  0.1273736198467794
  0.3771483801650432  0.1248338692520491  0.3812400000959673
  0.1239746600932092  0.3722686342970376  0.3755867040602625
  0.8746555283534037  0.6233867793284503  0.8791355615021532
  0.8722077371551568  0.8745502273169879  0.6283921575513534
