Pt
 1.0000000000000000
     7.9242058759463321    0.1117357076168457   -0.0492976954048105
     0.0423404357023412    7.9321650127277250   -0.0083715830791044
     0.0405084405700232   -0.0535311420860088   16.0394519009021828
 Pt 
  32
Direct
  0.1154818474931977  0.1214433927832821  0.3079113683502369
  0.3742097552604282  0.8669942432871176  0.5627396215678310
  0.3856179542256057  0.3734995677994592  0.5581408837672526
  0.8749025848328273  0.6326117837061679  0.6895342659818694
  0.8756834647912486  0.1141859996653938  0.6844390320895871
  0.3810547461887330  0.6271792820494150  0.6850485167549462
  0.3808531125119710  0.1195305048148289  0.6953769118294358
  0.6298783905444880  0.8760481629452620  0.6900449685811260
  0.6236015433417845  0.3875134967985588  0.6841180582830987
  0.1316068556019470  0.8875464899736096  0.6765403961994280
  0.1082666630718543  0.3861897632851869  0.6847190137493733
  0.6350073291490759  0.6297287195730538  0.5515312960094251
  0.6254925034025881  0.1337982480860282  0.5547963027065718
  0.1237670060546622  0.6179884945933291  0.5676854238191215
  0.1185790534366405  0.1411822135461300  0.5532867037799801
  0.8746505282107018  0.8730177276450470  0.3137495250370021
  0.8652030324914408  0.3829649690586622  0.3138534146750233
  0.3704595435715912  0.8794532952429668  0.3095076520529286
  0.3789300572379832  0.3694146919812182  0.3152739199299930
  0.8783550868250639  0.6268195549046172  0.4391387696428003
  0.8782459972177312  0.1102243745859840  0.4337767642658149
  0.3791659283477688  0.6272702855384482  0.4475861124249642
  0.3629069075855915  0.1331020410827893  0.4390557085425887
  0.6277334372358681  0.8688014496369705  0.4387864840258840
  0.6258514501874229  0.3780552323282013  0.4357501165331465
  0.1208516735792795  0.8786984687426252  0.4396995252580386
  0.1182121554104910  0.3673620472233186  0.4360141762908774
  0.6248734864626990  0.6306964209550643  0.3169864208391011
  0.6314375269701406  0.1244617613832791  0.3227575068544672
  0.1219486917797786  0.6168340722312040  0.3143136709590751
  0.8739723967989631  0.3701822759046209  0.5683407876408800
  0.8666112274955931  0.8737402382140038  0.5672194786661940
