Pt
 1.0000000000000000
     7.9354305576916460    0.0000000000000000    0.0000000000000000
     0.0000000000000000    7.9354305576916460    0.0000000000000000
     0.0000000000000000    0.0000000000000000    7.9354305576916460
 Pt 
  32
Direct
  0.1250000000363615  0.1250000000363615  0.1250000000363615
  0.6250000001818076  0.8750000002545306  0.8750000002545306
  0.6250000001818076  0.6250000001818076  0.6250000001818076
  0.8750000002545306  0.8750000002545306  0.1250000000363615
  0.8750000002545306  0.6250000001818076  0.3750000001090845
  0.6250000001818076  0.8750000002545306  0.3750000001090845
  0.6250000001818076  0.6250000001818076  0.1250000000363615
  0.8750000002545306  0.3750000001090845  0.6250000001818076
  0.8750000002545306  0.1250000000363615  0.8750000002545306
  0.6250000001818076  0.3750000001090845  0.8750000002545306
  0.6250000001818076  0.1250000000363615  0.6250000001818076
  0.8750000002545306  0.3750000001090845  0.1250000000363615
  0.8750000002545306  0.1250000000363615  0.3750000001090845
  0.6250000001818076  0.3750000001090845  0.3750000001090845
  0.6250000001818076  0.1250000000363615  0.1250000000363615
  0.3750000001090845  0.8750000002545306  0.6250000001818076
  0.3750000001090845  0.6250000001818076  0.8750000002545306
  0.1250000000363615  0.8750000002545306  0.8750000002545306
  0.1250000000363615  0.6250000001818076  0.6250000001818076
  0.3750000001090845  0.8750000002545306  0.1250000000363615
  0.3750000001090845  0.6250000001818076  0.3750000001090845
  0.1250000000363615  0.8750000002545306  0.3750000001090845
  0.1250000000363615  0.6250000001818076  0.1250000000363615
  0.3750000001090845  0.3750000001090845  0.6250000001818076
  0.3750000001090845  0.1250000000363615  0.8750000002545306
  0.1250000000363615  0.3750000001090845  0.8750000002545306
  0.1250000000363615  0.1250000000363615  0.6250000001818076
  0.3750000001090845  0.3750000001090845  0.1250000000363615
  0.3750000001090845  0.1250000000363615  0.3750000001090845
  0.1250000000363615  0.3750000001090845  0.3750000001090845
  0.8750000002545306  0.6250000001818076  0.8750000002545306
  0.8750000002545306  0.8750000002545306  0.6250000001818076
