Pt
 1.0000000000000000
    19.9354000000000013    0.0000000000000000    0.0000000000000000
     0.0000000000000000   19.9354000000000013    0.0000000000000000
     0.0000000000000000    0.0000000000000000   19.9354000000000013
 Pt 
  43
Direct
  0.2991426954061619  0.4020910370496704  0.4003448754476960
  0.5981489852222679  0.4011028933455060  0.5006468503265546
  0.5993166041313441  0.4033171057515776  0.6978196088365419
  0.5015363288421602  0.5009226767458891  0.2989460943848631
  0.5006491096240857  0.5993272098879380  0.4036692471683538
  0.5994601497838016  0.4997602797034420  0.4016006335463547
  0.5998958440763665  0.6026983978249746  0.3004268848380268
  0.5018154925409071  0.5011077094013664  0.4994564779236935
  0.5018976173038915  0.5996601156736258  0.5973515364627747
  0.5986972049720597  0.3026052484525015  0.6001158306329444
  0.6014683046239352  0.4982905213840705  0.5982205423517962
  0.4981023490875527  0.4993140829880514  0.6998862465764418
  0.5995274285943597  0.6005785201199876  0.6991857083379315
  0.5979991984108670  0.6986550392768641  0.3993158381572479
  0.5020848360203456  0.6987114775725594  0.5020388660373004
  0.6021548581919600  0.7005759824232269  0.5994332238129156
  0.6977934954904340  0.4022735139500586  0.4019502703733057
  0.6992411860308796  0.4010611620534325  0.5976795529560479
  0.6999310101628259  0.5967676570322140  0.3998397062511913
  0.6004164972862345  0.5991934714126629  0.4995288145710645
  0.6990191167470931  0.4996910862084533  0.5005805772645645
  0.5045287985192171  0.4018535996267945  0.5981217913861773
  0.6000001715541198  0.4007205985332624  0.2991817746320615
  0.4012944897017366  0.3022692501780752  0.4004262387511662
  0.4025755435055228  0.3992055012690992  0.3006441561242814
  0.3017345967474944  0.4011152422324106  0.6013335187656128
  0.4015183146563400  0.3001340464700984  0.6010436048436448
  0.4034125991954011  0.4006416911624547  0.5011929723005307
  0.4012523606248181  0.3993769114238991  0.7010413525687972
  0.3002961721359992  0.5996280611374739  0.4013467510057486
  0.3999340645284268  0.5007588907170158  0.3997975390511351
  0.4983064583605044  0.3012664155221365  0.5026490805301123
  0.4023221851580605  0.6016475726596907  0.2980376586373988
  0.3022995159364748  0.5997203206356531  0.5986229797245101
  0.4026876596406392  0.4987950444937146  0.5973065531667285
  0.4002203181275519  0.5999103855453113  0.5023369784403623
  0.4012639851721058  0.6006930681099952  0.7013232631399420
  0.4021776372683768  0.6986312624778033  0.4030044232872177
  0.4037795243636947  0.6989871795900759  0.5998303655808259
  0.5013690349829950  0.4008159811190144  0.4031808055017707
  0.5993088380468914  0.3001925098066755  0.3992811250338593
  0.3003390340800786  0.5006458972481114  0.4982330196534807
  0.6995749691503556  0.5957419259207239  0.5982518976293427
