Pt
 1.0000000000000000
     7.9578054137946044   -0.0591735524095228   -0.0070042737746685
    -0.0061616590358716    7.7866258308800580   -0.1045190458057627
    -0.0393082201787146   -0.0295304409539762    7.9032903239578616
 Pt 
  32
Direct
  0.1141247353572249  0.1261961346523464  0.1106798857961081
  0.6365050566488096  0.8670711629199287  0.8780664371183757
  0.6161083721372553  0.6024688451143735  0.6284393331061503
  0.8813535729758734  0.8854964721858830  0.1126570253095248
  0.8792852518231214  0.6314486816999323  0.3682750245797373
  0.6251711833389987  0.8763659900333355  0.3910911975243195
  0.6307989207280725  0.6326497733300257  0.1038191038595593
  0.8731160545629021  0.3671144465728529  0.6288092341079256
  0.8896204583389721  0.1294968602050974  0.8846794369067026
  0.6228237132691035  0.3808777422414562  0.8749853937449373
  0.6100765722362816  0.1150542091658556  0.6527663793210937
  0.8742506331870383  0.3837490285393426  0.1234215412936842
  0.8714525267450889  0.1251217642543885  0.3704478982143946
  0.6130897178792712  0.3570632940907920  0.3634057645986594
  0.6341906745849061  0.1166848289498865  0.1131783998090609
  0.3924144764978604  0.8793647702849265  0.6284876173756011
  0.3867594083675722  0.6256918536301527  0.8806777239590760
  0.1443018205862731  0.8912113456091325  0.9023527007850723
  0.1177959449713261  0.6215516323484120  0.6420310883934636
  0.3813176115935801  0.8916089937588821  0.1362067088618771
  0.3703409722145031  0.6239475201751260  0.3694095458129231
  0.1412756336375614  0.8962087532498697  0.3697498734279974
  0.1076730384419756  0.6249942590826683  0.1360851924890685
  0.3692236981226524  0.3677691121903301  0.6122468999880450
  0.3831578037126908  0.1059311660839682  0.8617005003487966
  0.1196648677262553  0.3744497722501747  0.8650457908230816
  0.1379612666109130  0.1445203879520894  0.6384661748074204
  0.3714315289398056  0.3696450288347327  0.1225818721199054
  0.3983395060153590  0.1140555385591412  0.3962277123392131
  0.1112757584878646  0.3925014746192581  0.3772987683929845
  0.8955098170614222  0.6376619041642845  0.8772746496075076
  0.8663823741283666  0.8705232761269927  0.6260822681048234
