Pt
 1.0000000000000000
    19.9354000000000013    0.0000000000000000    0.0000000000000000
     0.0000000000000000   19.9354000000000013    0.0000000000000000
     0.0000000000000000    0.0000000000000000   19.9354000000000013
 Pt 
  43
Direct
  0.2994447635863840  0.3956342661797606  0.4014646563399781
  0.5992054044563940  0.3993774822677247  0.5012316121071059
  0.5938985844277015  0.3962339075212937  0.7003458992545922
  0.5017749345385595  0.5003765708237606  0.2983022121452291
  0.5080168840354343  0.6013125174313030  0.4002388484805923
  0.6011600780521082  0.4980639299938802  0.3984010338393009
  0.6025772164090011  0.6001422635111409  0.3001784343429276
  0.4995612398045687  0.5016463532209035  0.4972780651504358
  0.5022999493363564  0.6008250453966311  0.6002592724500135
  0.5958269645956439  0.2996640629232420  0.5957490599636827
  0.5986340424571365  0.4944030438315760  0.5998782331932140
  0.4980618793703662  0.4997496122475596  0.6975734908755279
  0.6001112252575819  0.5932765121341934  0.7005935205714457
  0.6017960356952957  0.6978892653270061  0.3964250584387571
  0.4999516939715280  0.7018267689637528  0.4984948914995435
  0.6035374564844447  0.7055962298223259  0.5990920528306429
  0.7028861347151297  0.3939358277235470  0.3990309273954874
  0.6946154458902254  0.3985121642906588  0.6016994712922740
  0.7016859892452622  0.5999449246064789  0.4000030694142078
  0.5983179264022793  0.5984730955987840  0.4983535840765672
  0.6944130857670274  0.4986974552805561  0.4998496624095829
  0.4997062085536282  0.3963952561774531  0.6026259743973033
  0.6013191172487132  0.4034495064056903  0.2999710133731954
  0.3985075117629944  0.3023083108440262  0.4001871043470409
  0.4000704811541278  0.4055109859847307  0.2990211618527844
  0.3071173385033658  0.4022817821563650  0.6006307367797987
  0.3982783009119455  0.3044059612548531  0.5994994171172888
  0.4039742397945363  0.4022058709632111  0.5006058383578960
  0.4032343323936314  0.3917717522597991  0.7004454834114188
  0.2980859195200497  0.5966863975641320  0.3961988412572609
  0.3974528858212025  0.5037438872558363  0.3970590361868836
  0.5029705945203005  0.3030050799081031  0.4983018324187123
  0.4009049524965639  0.5981308732205022  0.3014796592995375
  0.2993701189843193  0.5955322627085485  0.5991676138928739
  0.4027124868324689  0.4992452180543154  0.5998860318829820
  0.4046261946085857  0.5956168449090562  0.5008699795338944
  0.4032014351354876  0.6009898532259197  0.7077866157689335
  0.3992598748959137  0.7031848585932562  0.4006143197528015
  0.3997538238510388  0.6956450128916399  0.5970358723677477
  0.5029194111981700  0.3967001264082988  0.3967580876230223
  0.6013069017927907  0.2982742036778795  0.4016339912918728
  0.2948440191819577  0.4971446452040089  0.5009517361076276
  0.7022838403041824  0.6030386142239433  0.5991009781594550
