Pt
 1.0000000000000000
    21.5463013567337569    0.0000000000000000    0.0000000000000000
     0.0000000000000000   21.5463013567337569    0.0000000000000000
     0.0000000000000000    0.0000000000000000   21.5463013567337569
 Pt 
  55
Direct
  0.4983073332279612  0.5014849723441338  0.4998693618769980
  0.5016797579795202  0.5010248915239561  0.2779671819696440
  0.5017557422504583  0.6370482837283009  0.2764693448482898
  0.6125732227297137  0.4299618160267095  0.6780247917322639
  0.6116000533837160  0.5681600144413718  0.6787855222970426
  0.6090091924709425  0.4309088514209593  0.3215727300609117
  0.6107774555880874  0.5694415100235066  0.3209245673081135
  0.3878335507169737  0.4311985396554576  0.6781387398275472
  0.3911639974981598  0.5681637858543236  0.6811079106815512
  0.3916785141113109  0.4329758637244924  0.3207038482194281
  0.3880929562598305  0.5701103199394830  0.3221332499292661
  0.6794188565187296  0.6112970612417279  0.4298462555897335
  0.5003533600271836  0.3660333543759343  0.2779655784461701
  0.6800571062012303  0.6082240173394943  0.5678584754490208
  0.3212847251779734  0.6072749746401722  0.5672888366141791
  0.6798086965131179  0.3907445705231827  0.4344169574642445
  0.6798451802690529  0.3904398681108613  0.5673113634503151
  0.3204799169785104  0.3896037840098483  0.4313610413276485
  0.3188498901159638  0.3890740234810682  0.5682317975272200
  0.4319058619818130  0.6771536176180054  0.6115996041186733
  0.5693507501307704  0.6779830518537989  0.6117151775509192
  0.4313388983160893  0.3199891139481009  0.6100258170710229
  0.5702743063212523  0.3193140806902256  0.6106183507866071
  0.4297077617503225  0.6768474750513166  0.3878095911523388
  0.5658758330784012  0.6785397599310417  0.3889917425377801
  0.3207704304126430  0.6104791482408735  0.4320806571792645
  0.4314725282116492  0.3217001988062210  0.3881205939499445
  0.4999502402593778  0.6366912298714636  0.7225611659392506
  0.5014214658528180  0.3639406657397982  0.7196553632697621
  0.6115129446976857  0.5012001322735162  0.4314881281048482
  0.6126982209814047  0.4988151725930028  0.5681530512973261
  0.3899404858817792  0.5005821324702303  0.4332270339792103
  0.3901901032017523  0.4992245662914365  0.5698718233216682
  0.4342512144004640  0.6109089519388110  0.5011037802377014
  0.5691655127698925  0.6097387334598923  0.5018629546189177
  0.4309180571772845  0.3893406321163458  0.5007963325746282
  0.5679457785999820  0.3899371864755924  0.4993629468863532
  0.5016988387485670  0.4335176077485242  0.6080498802596364
  0.4994142280775752  0.5690541210298318  0.6091300934997025
  0.5012281352235358  0.4317344460186345  0.3884106947842599
  0.5006005792557560  0.4998272400304233  0.7244751204188259
  0.5020369886648506  0.5673416466060733  0.3871926908417039
  0.7222496869578290  0.5010909803610343  0.5021237877849890
  0.7230950301885969  0.4996330540339162  0.6392430970847576
  0.2815172882609075  0.4999623611331963  0.3633797495157139
  0.2797367473984727  0.5003052455047495  0.5024932641915515
  0.2782803094938672  0.4992786586379931  0.6357981698663419
  0.3635368604715088  0.7217469264227074  0.4983434907098000
  0.4984330754588501  0.7218022059799865  0.5024510230669644
  0.6411032321184428  0.7227952186388998  0.4987119442029802
  0.3623313092462688  0.2799810775000915  0.5005568993691518
  0.4987371044377241  0.2790407745838479  0.5005984888737802
  0.6367304547010995  0.2810894422075468  0.4988820833808977
  0.7212840492989322  0.5003668143085102  0.3652492272201744
  0.5655343289901508  0.3219611647096912  0.3884017591439005
