Pt
 1.0000000000000000
    11.2784142087027845   -0.0221595721782897   -0.0430440850414775
    -0.0797616297840876    7.8716962653816056    0.0317961448803582
     0.0174553894946692   -0.1251109531351769   14.1737770277635171
 Pt 
  32
Direct
  0.0055852677095863  0.1311037119731063  0.4479643977523390
  0.1261909846341667  0.8770673503913076  0.5502029726907384
  0.1228766919464450  0.3781001133754956  0.5491004884265238
  0.4959153992437867  0.6346288488047858  0.6538196209552501
  0.4930378037854357  0.1332716759227172  0.6528524864976524
 -0.0008451154966546  0.6226654085767096  0.6452717899624485
 -0.0007640415064923  0.1331246625902285  0.6508916136752052
  0.8794869333772236  0.8756591457814353  0.5554648228109150
  0.8687583253222045  0.3840222348932920  0.5449032855172818
  0.3737658849275726  0.8586409951266284  0.5439596680512844
  0.3824129115463302  0.3890066059351572  0.5493383985251258
  0.7412639820606641  0.6288980757583721  0.6428809750359112
  0.7503603195188756  0.1288505146731966  0.6444650085774630
  0.2459936367166121  0.6201543938021442  0.6507736522168510
  0.2428593580259606  0.1378757684756817  0.6467716878142916
  0.8703081313713364  0.8822653599298633  0.3561391857741313
  0.8770199658929030  0.3774776068686880  0.3493261774627438
  0.3770788364225201  0.8681677923762983  0.3514754877854547
  0.3769227857019515  0.3776847793251009  0.3521749944775963
  0.7535002725331981  0.6239518492228350  0.4469488580217232
  0.7539025165567071  0.1309531453551875  0.4467005214242767
  0.2435299455218002  0.6171369996793684  0.4535983043643814
  0.2464522539987758  0.1199772566265147  0.4501972448872790
  0.6223506055464952  0.8693678452315518  0.3545262527120722
  0.6275410436496657  0.3628001628751052  0.3530800063882574
  0.1264441888339942  0.8771450567924579  0.3511753968868315
  0.1289260669328637  0.3708813531657097  0.3447402888996516
  0.5006286005920637  0.6315697653592558  0.4504804438358062
  0.5010103343553056  0.1272674999400891  0.4488097797158411
  0.0085602215158965  0.6254816251631542  0.4426386389626427
  0.6306399369150391  0.3868657906562254  0.5456853824634054
  0.6282321307733730  0.8698393663245002  0.5530902322925481
