Pt
 1.0000000000000000
     7.9252809362758603   -0.0322408823348949    0.0065028378189138
    -0.0131477820832080    7.9443095911733668   -0.0019866677469582
    -0.0027616431466773    0.0333912370699477    7.9224660477668385
 Pt 
  32
Direct
  0.1301554272866582  0.1265190510444089  0.1259328945896105
  0.6239952615833395  0.8741311032194810  0.8736196414542496
  0.6242545700084589  0.6203140378608716  0.6253050037446269
  0.8769304913238620  0.8761019137897236  0.1256238639144655
  0.8746336142598575  0.6263852222344666  0.3727175681120174
  0.6275691443248451  0.8755388123902853  0.3743322895261926
  0.6263769755439351  0.6233934922766373  0.1232495995529753
  0.8817244089363153  0.3765326377303599  0.6247875023472038
  0.8764880025391236  0.1253304442567094  0.8727594045757500
  0.6202861312121556  0.3714194268931327  0.8761085039726867
  0.6247401220925707  0.1240673093697541  0.6260330201386062
  0.8719056659434125  0.3739065451294371  0.1218444018711398
  0.8747488769933857  0.1215661917011228  0.3776096373926489
  0.6274931142208020  0.3767165930489309  0.3735740105298580
  0.6265174364944478  0.1274884996083805  0.1241596631754962
  0.3764999525327133  0.8727453200813361  0.6259610463394082
  0.3774415404568916  0.6218562562571531  0.8718702849589195
  0.1243806235705945  0.8721765913311575  0.8729212780949852
  0.1239776680618718  0.6284725739662966  0.6251092828501226
  0.3772813318036771  0.8762129432609101  0.1323450209012342
  0.3784662455810401  0.6217512423517191  0.3757260543090521
  0.1268658615932884  0.8743749193517963  0.3753104205686633
  0.1236511147920390  0.6216652221505041  0.1247097915148691
  0.3698580141820684  0.3725873576546363  0.6258019044463614
  0.3753494498451895  0.1238427529258422  0.8754251158652976
  0.1224609550906750  0.3781333946617958  0.8721283739217440
  0.1225748151442324  0.1226401355736625  0.6214053959178480
  0.3772926715179726  0.3677151047688340  0.1261853517147429
  0.3779273154793616  0.1264483055110927  0.3755061192807361
  0.1231535942844400  0.3778648180910070  0.3749900606811407
  0.8733741641178857  0.6247890826572011  0.8737813991296276
  0.8754926116647265  0.8697791077558645  0.6263115166058300
