Pt
 1.0000000000000000
    11.2272135988984783   -0.0209819464782235    0.0585970040343974
    -0.0491900512889453    7.7847341084681601   -0.0523247805066654
    -0.0821831941829465    0.0213154831830853   14.1450654662784547
 Pt 
  32
Direct
 -0.0071681783075119  0.1252227426124307  0.4471670669445827
  0.1267041559677943  0.8654077709630262  0.5517907977402594
  0.1292941600800032  0.3897361845110289  0.5604463279996356
  0.5125463096684283  0.6598802115692215  0.6506523268482989
  0.4931808533119186  0.1193862405514763  0.6463276129881711
  0.0143701948329940  0.6367935717785133  0.6522369801328386
 -0.0047662318264703  0.1199948504306303  0.6479557640059247
  0.8836462246427096  0.8677119290232123  0.5529195607813968
  0.8757560779747207  0.3699163625092250  0.5502635126430220
  0.3774596537301191  0.8592082213638854  0.5395890407814455
  0.3794272424639386  0.3904861656435741  0.5464206193797347
  0.7389706294232822  0.6322669962508708  0.6483400213812969
  0.7566274649649328  0.1266119730941976  0.6528100427034678
  0.2487679674647670  0.6192254455860393  0.6435429577637894
  0.2404601670400049  0.1278217735726811  0.6521565427081081
  0.8644719406795064  0.8780086247083380  0.3478384998998311
  0.8718640717433790  0.3776099862786966  0.3578457660154968
  0.3865867919193825  0.8693854010478583  0.3548494946485654
  0.3856409264099472  0.3686954484674483  0.3538171709014324
  0.7442939282324569  0.6185240989169055  0.4600104784888242
  0.7648795192975035  0.1352168271024268  0.4560025719144213
  0.2527541300228412  0.6036683862345553  0.4486192980979843
  0.2501349605010637  0.1361202347380319  0.4492417109885199
  0.6260612773147419  0.8569918401133236  0.3539012340855853
  0.6121566013402693  0.3647073450894509  0.3559205322127880
  0.1289760713234720  0.8784587038273404  0.3497356544078131
  0.1330923897582067  0.3681867700849805  0.3468849365404524
  0.5020735233817145  0.6447478926357799  0.4439406111381742
  0.4959613451287025  0.1207471021954699  0.4544508494501187
 -0.0083831034996757  0.6338560355657588  0.4575573614779611
  0.6239797106031092  0.3906848365194753  0.5517747956207959
  0.6245566427799376  0.8761064688648388  0.5560368079820880
