Pt
 1.0000000000000000
     7.9446846957106088   -0.0101233163626410   -0.0098353601514057
     0.0406536588275943    8.0096806102039828   -0.0146420943559918
     0.0064650068964807   -0.0143195662505256    8.0055301290021106
 Pt 
  32
Direct
  0.1253851205413765  0.1233129587974388  0.1136439327734545
  0.6243295185315068  0.8724679268734976  0.8699782839045928
  0.6204199189595173  0.6299952904091122  0.6209570064354650
  0.8721064672673360  0.8741682376813092  0.1207190016703552
  0.8723018815840445  0.6147811091721240  0.3697319913208370
  0.6228226940433286  0.8811623060242149  0.3743078345653110
  0.6171001875845404  0.6331292895928150  0.1241842208288680
  0.8776855776458092  0.3764691960163574  0.6189000942356868
  0.8780144631445640  0.1198648238919948  0.8673661879516399
  0.6234527417314474  0.3773693623819407  0.8748914034674192
  0.6273309811352858  0.1194594520823130  0.6181016176276013
  0.8776019408393364  0.3779602723565239  0.1172502577596808
  0.8734502086657379  0.1271044951621225  0.3775126624580574
  0.6225397333152966  0.3759114327614551  0.3748338029836067
  0.6259806795774855  0.1232987145434625  0.1299196255693100
  0.3787584058806147  0.8782398684702279  0.6329545370139230
  0.3665513470965179  0.6171488056451104  0.8762071920939704
  0.1169122295767971  0.8751962810349985  0.8772083331458620
  0.1209025346738031  0.6229135990974296  0.6244813396622008
  0.3784761293415944  0.8758706004933184  0.1297729409890243
  0.3774796515229112  0.6227120554065618  0.3786022497141279
  0.1294600967642883  0.8794577928274226  0.3822800978007282
  0.1162355360507422  0.6323093214307709  0.1232958024266469
  0.3761934905803308  0.3748250574926859  0.6297955776919593
  0.3729743887095064  0.1316271369830503  0.8783002863142269
  0.1257106112521844  0.3787910222405434  0.8852983148923327
  0.1247251806590903  0.1272069516948911  0.6284584221392866
  0.3633160406806860  0.3731223395864787  0.1269532448487726
  0.3697838741242687  0.1327055409310084  0.3776622017421517
  0.1179072842319645  0.3738696370875060  0.3696662378905888
  0.8739299847915709  0.6160211198501266  0.8706939307189295
  0.8690932278604238  0.8712360377343498  0.6257705366723104
