Pt
 1.0000000000000000
     7.8645694264908936    0.0810472432319114   -0.0369570231282895
    -0.0268656773663421    7.9482938683229234    0.0617878096653324
     0.0220925640946920    0.0388226539840694    7.9644640484010942
 Pt 
  32
Direct
  0.1262740574037895  0.1188046403563352  0.1344921263056388
  0.6281492106405775  0.8752955439883693  0.8686434188652873
  0.6352883772825887  0.6258920245170746  0.6173196627031661
  0.8744694901819615  0.8722659873685202  0.1224900694434573
  0.8739518630619164  0.6321713851139661  0.3715716281739017
  0.6320192516479629  0.8706845495814107  0.3723296534269517
  0.6275505135584124  0.6274554842946980  0.1307224494303156
  0.8638118186676758  0.3727926929041911  0.6164634769608718
  0.8775368408280385  0.1172005274305212  0.8780761019123208
  0.6225970303053485  0.3731393890264416  0.8818665317110468
  0.6232487723431157  0.1288067000864326  0.6288921068619980
  0.8747929490687218  0.3750591962434332  0.1221939469004009
  0.8749067393896218  0.1313182468426453  0.3798667271740139
  0.6259235511372350  0.3793960550197014  0.3784023609881966
  0.6311781766530974  0.1277702790302188  0.1272407452193196
  0.3750245912831002  0.8754361625800009  0.6155523936968860
  0.3757335932937886  0.6267236894201399  0.8588557685103766
  0.1270466727451616  0.8670968313422309  0.8701079433258098
  0.1210262033104921  0.6208589822002230  0.6307664735560219
  0.3851234473530116  0.8768227161926025  0.1242683606879256
  0.3594941620684494  0.6165217560749785  0.3652477162888503
  0.1223817307739781  0.8747227996653788  0.3614248794527395
  0.1216490219866300  0.6263379576535549  0.1213292582316844
  0.3760877860145010  0.3827975825337946  0.6265842535679356
  0.3709019354378622  0.1319621659023424  0.8718617368372114
  0.1253035046121316  0.3818094135796162  0.8709988136032784
  0.1164591022425114  0.1278451714863286  0.6221374820076421
  0.3812573910251711  0.3713169379184784  0.1174553557210328
  0.3835372196899443  0.1168931597769726  0.3692238703973454
  0.1201680382815843  0.3778146682795392  0.3797339700170768
  0.8761236261107053  0.6306920376919890  0.8794318750094917
  0.8770916248768614  0.8777387658075836  0.6302812655267570
