Pt
 1.0000000000000000
    19.9354000000000013    0.0000000000000000    0.0000000000000000
     0.0000000000000000   19.9354000000000013    0.0000000000000000
     0.0000000000000000    0.0000000000000000   19.9354000000000013
 Pt 
  43
Direct
  0.3023647586705057  0.3989626518655256  0.3990059853326243
  0.6022601603178266  0.3938191112292705  0.4916981344743521
  0.5976784734693058  0.4033445614334299  0.6988941014476759
  0.5035651419083639  0.4938221971969461  0.2917823815925439
  0.5032138351876561  0.6012938722072293  0.3931301739618969
  0.5901181355779166  0.5098123935311054  0.3994970640167742
  0.5969478470459584  0.6069464450174061  0.3001279181757075
  0.4967065827623223  0.4876981695877685  0.4936800304985102
  0.4965313417338001  0.5985250017556707  0.5943626383217793
  0.6026352889834163  0.3045530272781082  0.5901672803154188
  0.5940647747223531  0.5060367391675110  0.5946390235460537
  0.4986616074921998  0.4891882570703371  0.6938616170229841
  0.5924297260150285  0.5949843930896797  0.6999731773628820
  0.6092402469978029  0.6933396305065360  0.4041332679554962
  0.4994583233845319  0.7004176510127712  0.4882399951844457
  0.5979679309168614  0.7091476900388254  0.5973543174453484
  0.7018316863469004  0.3960561393300360  0.3931545828024519
  0.6871026826650080  0.4023419986556577  0.5983959418923122
  0.7126007629643749  0.6009721696078332  0.3914095347973955
  0.5986919505001154  0.5964737507148088  0.4939568054817058
  0.7001925599686988  0.5043253995405158  0.5009061308024919
  0.4981624446963692  0.4030196600018058  0.6025386428162967
  0.6006807728964555  0.3984233383829769  0.3069012124161040
  0.4066038795308847  0.3121457387361176  0.3982826389237236
  0.4014589634519498  0.3983311746942624  0.3115211488106584
  0.3014112071992535  0.3984764870531817  0.5858361868836340
  0.3919941666583063  0.2996319612347884  0.5931012244549896
  0.3942995866649277  0.4097761173590698  0.5031979518845872
  0.3865075579120559  0.3982364306710675  0.7014024047673987
  0.3006604422283977  0.6021670355247448  0.4046480466908113
  0.4013688639304954  0.5045462162785798  0.4128832594279522
  0.4970640077450164  0.3020748377258545  0.4998014115593366
  0.3981080760857569  0.6074978926933996  0.3049364592634208
  0.2905367180994612  0.6083412106102711  0.5974577149191889
  0.4058527569048024  0.5053506967505040  0.6082679911112895
  0.4034401607191227  0.5967446256408198  0.5043410761760485
  0.4046519758820991  0.6005477236473810  0.7047708578709231
  0.3955740170751527  0.6965203863479037  0.3998718907069835
  0.3908199695014898  0.6992720080861181  0.6021858929341773
  0.4898522332132788  0.3910329393942434  0.4019702042597590
  0.6040349057455581  0.3048544338212426  0.4100563645575207
  0.3024026294932632  0.4997769821523521  0.5057759503195320
  0.6910712355909587  0.6034912943808500  0.6039363910430691
