Pt
 1.0000000000000000
    11.1859228075009511    0.0319956590385456   -0.0028147720095859
     0.0161161680753853    7.9612889684938217   -0.0011927649519913
     0.0416544923513940   -0.0255286457644364   14.2018590743559940
 Pt 
  32
Direct
  0.0013470526873049  0.1265782522068092  0.4531894441461336
  0.1266121733772822  0.8741889595081397  0.5487039841442296
  0.1284960154627576  0.3706995230348382  0.5475499245326154
  0.5033927143258869  0.6253426895151801  0.6450607434280976
  0.5032344099160677  0.1277583078960503  0.6473333538679804
  0.0006720079489532  0.6329688884026814  0.6473308505965327
 -0.0001008157775510  0.1244051531010470  0.6496598955127586
  0.8761408541555277  0.8745421885383737  0.5538336135321024
  0.8777453129163491  0.3772902711757400  0.5465218842767944
  0.3746444349205170  0.8820850236755207  0.5476696253671691
  0.3725617902088048  0.3765572611296969  0.5502727868151863
  0.7485353933889065  0.6290979671509124  0.6489403847924047
  0.7580735551763392  0.1283856434008203  0.6461431471806254
  0.2469668510692374  0.6257609901347257  0.6518134564419211
  0.2508751015480276  0.1255756946348049  0.6455824868067057
  0.8746436057372694  0.8730437823259313  0.3502129300343338
  0.8774245943192607  0.3758284984565331  0.3556877651582102
  0.3808680703893007  0.8748759790754400  0.3523499058813167
  0.3780029540727336  0.3740061720481192  0.3554401354892630
  0.7513701287194344  0.6279574380490061  0.4538574736929568
  0.7495127171502848  0.1260052176931616  0.4539153013892881
  0.2539395636424870  0.6219569739963170  0.4475368476182625
  0.2523695616414247  0.1255032792998674  0.4493847245826509
  0.6238785988338694  0.8766139070893020  0.3494241390778773
  0.6282799756040945  0.3803163429894892  0.3477864804202106
  0.1240170830937018  0.8769011452742034  0.3509380293574454
  0.1237903767131640  0.3752945234377549  0.3531125054533795
  0.5013591435642977  0.6222262218400590  0.4534612671197562
  0.5052088416762049  0.1253741208305944  0.4523105162452156
  0.0018346799889858  0.6229008915682505  0.4527822748339376
  0.6216159974131396  0.3732998960273399  0.5505692631791843
  0.6250193896075992  0.8776664106591070  0.5495869467477749
