Pt
 1.0000000000000000
    21.5463013567337569    0.0000000000000000    0.0000000000000000
     0.0000000000000000   21.5463013567337569    0.0000000000000000
     0.0000000000000000    0.0000000000000000   21.5463013567337569
 Pt 
  55
Direct
  0.5012885001083699  0.4985904797364497  0.4986305733926971
  0.4969528139758261  0.4886179115242796  0.2726226085278541
  0.4967906747788401  0.6359980361881157  0.2737039105858855
  0.6057232150390028  0.4371288906648695  0.6747110438728111
  0.6100044417086173  0.5656436326688197  0.6736301024335176
  0.6095266376609736  0.4215400791821494  0.3159985292729670
  0.6042104101515036  0.5642656263229314  0.3216531614988327
  0.3982341664091869  0.4262805350176507  0.6825959967093640
  0.3887338555850265  0.5697423973958989  0.6683407078356656
  0.3878046209257450  0.4409067107488052  0.3187803700635334
  0.3918292327866990  0.5643577850636418  0.3139951691934186
  0.6681878843906816  0.6124821370269982  0.4305090839686532
  0.4976257693828788  0.3699637983346387  0.2776889639172391
  0.6917796095589150  0.6121141810670059  0.5600585822229160
  0.3134167696902432  0.6144449643958255  0.5725483309526160
  0.6751767841330003  0.3792984440666378  0.4300674401875489
  0.6835846011871038  0.3835608113509094  0.5700633601395969
  0.3238138915113390  0.3872993611217649  0.4358856280948123
  0.3239100764651131  0.4032730920327752  0.5745659802595777
  0.4329993266841731  0.6806580576028476  0.6080827039906467
  0.5687852419352679  0.6818388235997017  0.5998763015518940
  0.4325676470262120  0.3205520026684989  0.6135214713252256
  0.5667416944478826  0.3166626172648268  0.6161694886835353
  0.4247571784351651  0.6818485106451274  0.3937348582265459
  0.5792002707740745  0.6832498467491805  0.3925284864428395
  0.3218561415800814  0.6147669788281462  0.4323818708257529
  0.4325682410956900  0.3273840555374705  0.3860963699646817
  0.4913066783358463  0.6459918010777311  0.7206148690177656
  0.5032985949865084  0.3573710504886051  0.7130272428496711
  0.6164253794700194  0.5103382087693443  0.4295047937361100
  0.6116651216279956  0.4980062147254126  0.5782168300596254
  0.3896412744350785  0.4981406628588550  0.4188883544590036
  0.3813780246525649  0.4987600192754880  0.5625232516397579
  0.4258195329256654  0.6193604460948179  0.5029588577908384
  0.5555230998502322  0.6086835203342811  0.5021970128816716
  0.4312550922850633  0.3916897810102548  0.5038508080927399
  0.5692733057484436  0.3934413540238851  0.5114703181553656
  0.4977997960029431  0.4389305307402260  0.6144328945748527
  0.5013235395328864  0.5682501700540609  0.6161090797076071
  0.4903447782093764  0.4397107987649628  0.3873325510409144
  0.5029735535845505  0.5016468655592266  0.7147239971739847
  0.5049654485872902  0.5734071679146369  0.3973346008791642
  0.7253843757789751  0.5009565025241179  0.5053136248183655
  0.7169851272488583  0.4976799967874181  0.6363447671595389
  0.2695266497878567  0.5002258945306917  0.3655591671903546
  0.2690809951095423  0.4912536293238105  0.5013731735736573
  0.2826530344660144  0.5035920356051705  0.6457678025398803
  0.3641665769028981  0.7196214196249625  0.5054857870813257
  0.4972835162101459  0.7225501872568270  0.4998162590274158
  0.6352128564154994  0.7238740989355748  0.5027985713480368
  0.3659749643079978  0.2817832313527231  0.4913521492491032
  0.5025409094919213  0.2723015617790191  0.4923188204960684
  0.6352147982801056  0.2811148451753666  0.4998762419441402
  0.7242631610702404  0.4974377417519214  0.3671034897842462
  0.5692490171250119  0.3187280492507251  0.3952888279518202
