Pt
 1.0000000000000000
    19.9354000000000013    0.0000000000000000    0.0000000000000000
     0.0000000000000000   19.9354000000000013    0.0000000000000000
     0.0000000000000000    0.0000000000000000   19.9354000000000013
 Pt 
  43
Direct
  0.2987206737762974  0.4022002819105711  0.3989287664155221
  0.6024949000270875  0.3989938496343188  0.4983588149723607
  0.6016185484113686  0.4040427305195782  0.6999186718099460
  0.4984800876832168  0.4985037731873952  0.3012353587086288
  0.4981704630957994  0.6007591304914874  0.3980291180513057
  0.5993740732566187  0.4984880263250298  0.3985008462333336
  0.6009651113095298  0.5998621622841778  0.2991415165986135
  0.4997246696830763  0.5026905314164751  0.4983140473730148
  0.5018592804759372  0.5977254476960582  0.5981515570292043
  0.6015528035554841  0.3026097349438687  0.6025711452993168
  0.5998119275259086  0.4964778188549013  0.5960049223993498
  0.4980631238901652  0.5001186005798729  0.7006295359009600
  0.6011910400593917  0.5985947395086127  0.6976707018670304
  0.5953848495640920  0.6986028005457627  0.4032801403533413
  0.5022614745628379  0.6977076020546363  0.5023155386899686
  0.5996416650782025  0.7006770965217652  0.5999127436620283
  0.7009043059080831  0.4046600118382374  0.4001461631068350
  0.7003889192090452  0.4019677553497797  0.5995288351374940
  0.6964696584969451  0.5977568420999828  0.4005711262377479
  0.6013628189050633  0.6011262773759242  0.4973951889603418
  0.6971603564513377  0.4986918130561714  0.5000138888610210
  0.5008141487003019  0.3977609920041735  0.5988892979323214
  0.6010642199303751  0.3987862882109213  0.2986979508813467
  0.4000860840514862  0.2997573045938381  0.4015636154779939
  0.4001989516137123  0.3998858402640528  0.2990973143252706
  0.3018257245904271  0.3979913239764439  0.5996146548351173
  0.4011539026054154  0.2978615402750885  0.6002260105139601
  0.3999033718912086  0.4003642670826770  0.5012802577324758
  0.3979512420116977  0.3999242929662810  0.6984186913731352
  0.2975451698987730  0.6024999503395968  0.3975881045777862
  0.3969031717447354  0.5037101277125113  0.3999977973855553
  0.5006175542000662  0.3019244710414639  0.4966304292865956
  0.4025584538057926  0.5997099551551510  0.3030618567974557
  0.3024957487685223  0.5996190781223351  0.5974474944069343
  0.4032622249867070  0.4994396079336256  0.5993589915426828
  0.4020070688323284  0.5984073472315579  0.5004088751667887
  0.3998317736288211  0.5996198887406322  0.6973960291742327
  0.3988054766897077  0.7009606739769454  0.4033190826369172
  0.4026898532259197  0.6983739674147496  0.6001512254582300
  0.4970563831174694  0.3978503676876310  0.4024821774331089
  0.5999815895341953  0.2995466045326404  0.3984080459885429
  0.3001438466245974  0.5004877444144586  0.5018914634268687
  0.6981615613431383  0.5994064538459223  0.6031755329714978
