Pt
 1.0000000000000000
    11.1775096386032189    0.0341735008422555   -0.0310454689864544
     5.6032228772898076    9.6946596470421653    0.0214812953461396
    -0.0057238194662641   -0.0119658225793792   14.5441475671894587
 Pt 
  48
Direct
  0.5041012707536555 -0.0051442827526522  0.3430541242224578
  0.5800632742017801  0.3388746046563910  0.4976739308703408
  0.5885023572699344  0.8296351219080539  0.4981491153831789
  0.0875034538390159  0.0760699623557029  0.4952098960190792
  0.0849721052884496  0.5866386634599253  0.4964282490337406
  0.5797500392252106  0.0835925463974379  0.5021873562505514
  0.5872792003037640  0.5814269851173642  0.4981510067839591
  0.1597278303810038  0.1658217749827255  0.6609165077894406
  0.1720702337770806  0.6639366725341369  0.6602897238898238
  0.6651917466151123  0.1700639020000270  0.6576387706908647
  0.0855668023096513  0.8340384478046017  0.4974945236118969
  0.6657091132673568  0.6752524422465177  0.6566196602700106
  0.1639104109241236  0.9130633764883059  0.6572163131156917
  0.6646809244525547  0.4139836272715642  0.6571190509659380
  0.6652293136098000  0.9164569182027973  0.6621164244797011
  0.4132395467783050  0.1652496741081634  0.6569409842920394
  0.4190761177880372  0.6605290489951047  0.6590065165904907
  0.9140404309775269  0.1609982742891332  0.6523215917978639
  0.9217208570487476  0.6607230043148302  0.6636297868744163
  0.4184776925828595  0.4148438735859261  0.6578326566239890
  0.4201380863428005  0.9157569455388509  0.6553503204285127
  0.1675683859018356  0.4197103414617414  0.6571181496317640
  0.0846450828613011  0.3302162466045769  0.4972862940341484
  0.8287790308070138  0.5859057551367489  0.4966187791865355
  0.8321627696362343  0.0802611743007469  0.5003628281305132
  0.5044052625779675  0.4935892854968401  0.3438946179285123
  0.9990844939706797 -0.0002450750103535  0.3446529442886941
  0.9960512697194428  0.4988576827256482  0.3420579918212451
  0.4907939960319481  0.2561677494445129  0.3388987613009391
  0.4897672991350778  0.7576644427102744  0.3421972809913197
  1.0034999645118046  0.2503942990435731  0.3457709356910230
  0.9980161546395383  0.7510131484985051  0.3454865739715619
  0.2526139293383122  0.0002035157192705  0.3400725634333848
  0.2555388257095115  0.4988278802842702  0.3427008933070321
  0.7538601975687022 -0.0022883980122855  0.3434717674624540
  0.7487218002584464  0.5002196268711280  0.3406599363075694
  0.2450009744863768  0.2539968934046819  0.3467662958294255
  0.2546126144071437  0.7486402154674904  0.3437850938564084
  0.7474621501217255  0.2445924575578039  0.3456383082581269
  0.7523079435732259  0.7470569915001216  0.3400606730787873
  0.3378588254974575  0.3298182429108802  0.4968976620469494
  0.3334537762115426  0.8352855104073011  0.4953787646086614
  0.8376021037851026  0.3277135963828421  0.4991612402201526
  0.8352846469375310  0.8366990589457235  0.5041896639266125
  0.3402005685152544  0.0802378791700278  0.4977696877162268
  0.3334207078549146  0.5906481795527513  0.5012104023682697
  0.9129608712772457  0.4172847826344677  0.6618987187996579
  0.9109116424022591  0.9181233312125671  0.6559197949986925
