Pt
 1.0000000000000000
    19.9354000000000013    0.0000000000000000    0.0000000000000000
     0.0000000000000000   19.9354000000000013    0.0000000000000000
     0.0000000000000000    0.0000000000000000   19.9354000000000013
 Pt 
  43
Direct
  0.3009048025121141  0.4000186838488317  0.4009530603850436
  0.6000737958606298  0.3992325406061578  0.5004416811300501
  0.5999391584818964  0.4010861176600419  0.6986185564372923
  0.4994720492189773  0.4986755585541298  0.3008946692817801
  0.4993718771632372  0.6001396671248130  0.4018032790914654
  0.5989744735495650  0.5006893837093812  0.3995376857248913
  0.5988394288552022  0.5986697026395256  0.2999900699258605
  0.4999683397373516  0.4991873666944229  0.5000540405509796
  0.5007360404105259  0.6006014200868806  0.6012079928167982
  0.5991795333928588  0.3005138708026927  0.6009109749490855
  0.5996050352639023  0.4996514436630315  0.6002638983918055
  0.4997047673986977  0.5003131243917854  0.6963681511281438
  0.5985801538970875  0.5993413340088485  0.6985610080560209
  0.6008361713334068  0.6986931062331330  0.4001839521654945
  0.4992257923091585  0.6996684310322341  0.5013055730007926
  0.5982713780511050  0.6992415747865605  0.6013838794305606
  0.6987228222157569  0.4006770654213108  0.4002929326725322
  0.7000154473950860  0.3997883834786359  0.5984415055629683
  0.6971595744253939  0.5997727916169227  0.3993921396109433
  0.6003601196865875  0.6003716629713975  0.4991646036698535
  0.6991247263661626  0.4974323941330497  0.4978516764148198
  0.4992149558072574  0.4011129277566540  0.6002773859566398
  0.5988524198160056  0.4013811119917332  0.3014438375954332
  0.3993333692827833  0.3001024333597520  0.3994480446843303
  0.4014534155321689  0.3993170310101627  0.3015004740311205
  0.3021717467419766  0.4006166949246064  0.5982121893716704
  0.3997114810839010  0.3015335082315880  0.5969935897950379
  0.4007894990820349  0.3999056286806384  0.4999673711086810
  0.3997287608976995  0.4000529359832258  0.6994446161100353
  0.3013249320304583  0.5991456504509566  0.4015888379465674
  0.4002381301604181  0.5007323715601392  0.3989226205644231
  0.5011131976283395  0.3016208739227705  0.4993167350542251
  0.4003935607010644  0.6001549700532720  0.2998221239603920
  0.2983861422394333  0.5994464224444956  0.5998139049128685
  0.3998791631971267  0.5006927606167922  0.6002455380880243
  0.4018778203597619  0.5990440091495529  0.5004894619621376
  0.4009329283585982  0.5996196339175536  0.6994607898512194
  0.4014412191378151  0.6999597635362219  0.4021284885179128
  0.3997973905715461  0.6976141632472886  0.5996414077470228
  0.5009951167270282  0.4008323851038855  0.4013126318007163
  0.5993667576271356  0.3031499142229401  0.3998992942203316
  0.3018380077650812  0.4987634113185588  0.5003249019332443
  0.6985944244911062  0.6001034817460396  0.5984000300972140
