Au                                      
   1.0000000000000000     
    -0.0007588378358162    6.1379295820071622    6.2047543339739235
     6.2066949148128971   -0.0494854423426741    6.2461287993484911
     6.2902660835456956    6.0857789801673947   -0.0042528985878906
   Au
    27
Direct
  0.0172722478607739  0.0148874226952316  0.9949550681194594
  0.9798823908136711  0.0041604340971588  0.3338956748326964
  0.9888604970959918  0.9894325232831420  0.7056694060265514
  0.9912197603004884  0.3386203289277319  0.0114341385020253
  0.9982168661939497  0.3241602336771408  0.3250568840467238
  0.9697256460927051  0.3297425922592083  0.6872661567387155
  0.0116891116763398  0.6491442971872914  0.9939043757954522
  0.0005227780005370  0.6469095231856272  0.3485745959998425
  0.9946274678528013  0.6484814818670728  0.6831170669401203
  0.3451614199116690  0.0017447784128350  0.9928041572238158
  0.3266213172075965  0.0206022450641754  0.3140469284927931
  0.3189843259313108  0.0156866120590919  0.6715580161430310
  0.3471651021279953  0.3431165898574307  0.9805721856884588
  0.3431586851678077  0.3207927424820696  0.3470166157249750
  0.3261449866512507  0.3360880979521141  0.6759242210419671
  0.3360618734490970  0.6667466820431613  0.9996116405238737
  0.3284667271135788  0.6683103945111668  0.3456279650138114
  0.3421316649181847  0.6585189079282188  0.6492057968721170
  0.6631950104845146  0.9984327394627570  0.0134624409124271
  0.6653108283157252  0.0062177106619004  0.3389046395761426
  0.6841253063038124  0.0161364106219963  0.6480376423310616
  0.6553321105697094  0.3552499095395163  0.9821284688544054
  0.6671751987845980  0.3248267333404016  0.3248937320967542
  0.6736645519998774  0.3262366751904864  0.6695906140183965
  0.6682419468320191  0.6801718226637021  0.9860508769441978
  0.6552199347536529  0.7037692666173854  0.3322496774545769
  0.6476667035662445  0.6832836066649790  0.6667569370567890

  0.00000000E+00  0.00000000E+00  0.00000000E+00
  0.00000000E+00  0.00000000E+00  0.00000000E+00
  0.00000000E+00  0.00000000E+00  0.00000000E+00
  0.00000000E+00  0.00000000E+00  0.00000000E+00
  0.00000000E+00  0.00000000E+00  0.00000000E+00
  0.00000000E+00  0.00000000E+00  0.00000000E+00
  0.00000000E+00  0.00000000E+00  0.00000000E+00
  0.00000000E+00  0.00000000E+00  0.00000000E+00
  0.00000000E+00  0.00000000E+00  0.00000000E+00
  0.00000000E+00  0.00000000E+00  0.00000000E+00
  0.00000000E+00  0.00000000E+00  0.00000000E+00
  0.00000000E+00  0.00000000E+00  0.00000000E+00
  0.00000000E+00  0.00000000E+00  0.00000000E+00
  0.00000000E+00  0.00000000E+00  0.00000000E+00
  0.00000000E+00  0.00000000E+00  0.00000000E+00
  0.00000000E+00  0.00000000E+00  0.00000000E+00
  0.00000000E+00  0.00000000E+00  0.00000000E+00
  0.00000000E+00  0.00000000E+00  0.00000000E+00
  0.00000000E+00  0.00000000E+00  0.00000000E+00
  0.00000000E+00  0.00000000E+00  0.00000000E+00
  0.00000000E+00  0.00000000E+00  0.00000000E+00
  0.00000000E+00  0.00000000E+00  0.00000000E+00
  0.00000000E+00  0.00000000E+00  0.00000000E+00
  0.00000000E+00  0.00000000E+00  0.00000000E+00
  0.00000000E+00  0.00000000E+00  0.00000000E+00
  0.00000000E+00  0.00000000E+00  0.00000000E+00
  0.00000000E+00  0.00000000E+00  0.00000000E+00
