Au
 1.0000000000000000
    -0.0007588378358162    6.1379295820071622    6.2047543339739235
     6.2066949148128971   -0.0494854423426741    6.2461287993484911
     6.2902660835456956    6.0857789801673947   -0.0042528985878906
 Au 
  27
Cartesian
  0.0606546200000000  0.0745767900000000  0.2001802700000000
  2.1261304499999998  1.9083289299999999 -0.1002582400000000
  4.3732676799999997  4.2266974900000003 -0.1381248400000000
  2.1736435099999998 -0.0010636300000000  2.0605383300000000
  4.0566593199999996  1.9512383900000001  2.0123002300000001
  6.3697216399999999  3.9804106199999998  1.8688469000000001
  3.9906886400000001  0.0025271300000000  4.1271928800000000
  6.2077966099999999  2.0925441199999999  4.0424414600000000
  8.3219189100000008  4.0922328700000001  4.0142583900000002
 -0.0346963800000000  2.0746978399999998  2.1525705300000002
  2.1030627399999999  3.9149793300000000  2.1539537000000002
  4.3213985700000004  6.0440807300000001  2.0743439100000001
  2.0071504299999998  1.9956622900000001  4.2973072099999996
  4.1736291300000001  4.2022757000000004  4.1314523000000003
  6.3374920000000001  6.0987489100000003  4.1200244300000000
  4.1355953400000001  2.0273663900000001  6.2497686699999999
  6.3218413399999998  4.0864494100000002  6.2109382300000000
  8.1706435400000004  6.0183159599999998  6.2332758400000001
  0.0744515700000000  4.1526512699999998  4.1051155499999998
  2.1698869300000001  6.1458220600000004  4.1654855399999997
  4.1759638399999996  8.1421282999999995  4.3428635199999999
  2.0920138300000000  3.8960404600000000  6.2851874499999996
  4.0592621800000002  6.0562316400000000  6.1671860799999996
  6.2362434400000000  8.1937420999999997  6.2147916399999996
  4.1333682100000004  3.9830721300000000  8.3947772500000006
  6.4575227999999996  6.0088655900000001  8.4598991899999998
  8.4345199599999994  7.9992553800000001  8.2836545499999996
Cartesian
  0.0000000000000000  0.0000000000000000  0.0000000000000000
  0.0000000000000000  0.0000000000000000  0.0000000000000000
  0.0000000000000000  0.0000000000000000  0.0000000000000000
  0.0000000000000000  0.0000000000000000  0.0000000000000000
  0.0000000000000000  0.0000000000000000  0.0000000000000000
  0.0000000000000000  0.0000000000000000  0.0000000000000000
  0.0000000000000000  0.0000000000000000  0.0000000000000000
  0.0000000000000000  0.0000000000000000  0.0000000000000000
  0.0000000000000000  0.0000000000000000  0.0000000000000000
  0.0000000000000000  0.0000000000000000  0.0000000000000000
  0.0000000000000000  0.0000000000000000  0.0000000000000000
  0.0000000000000000  0.0000000000000000  0.0000000000000000
  0.0000000000000000  0.0000000000000000  0.0000000000000000
  0.0000000000000000  0.0000000000000000  0.0000000000000000
  0.0000000000000000  0.0000000000000000  0.0000000000000000
  0.0000000000000000  0.0000000000000000  0.0000000000000000
  0.0000000000000000  0.0000000000000000  0.0000000000000000
  0.0000000000000000  0.0000000000000000  0.0000000000000000
  0.0000000000000000  0.0000000000000000  0.0000000000000000
  0.0000000000000000  0.0000000000000000  0.0000000000000000
  0.0000000000000000  0.0000000000000000  0.0000000000000000
  0.0000000000000000  0.0000000000000000  0.0000000000000000
  0.0000000000000000  0.0000000000000000  0.0000000000000000
  0.0000000000000000  0.0000000000000000  0.0000000000000000
  0.0000000000000000  0.0000000000000000  0.0000000000000000
  0.0000000000000000  0.0000000000000000  0.0000000000000000
  0.0000000000000000  0.0000000000000000  0.0000000000000000
