Au                                      
   1.0000000000000000     
     0.0000000000000000    6.2339319781091369    6.2339319781091369
     6.2339319781091369    0.0000000000000000    6.2339319781091369
     6.2339319781091369    6.2339319781091369    0.0000000000000000
   Au
    27
Direct
  0.0000000000000000  0.0000000000000000  0.0000000000000000
  0.0000000000000000  0.0000000000000000  0.3333333339691507
  0.0000000000000000  0.0000000000000000  0.6666666663341729
  0.0000000000000000  0.3333333339691507  0.0000000000000000
  0.0000000008020606  0.3333333331670829  0.3333333331670829
  0.0000000000000000  0.3333333339691507  0.6666666663341729
  0.0000000000000000  0.6666666663341729  0.0000000000000000
  0.0000000000000000  0.6666666663341729  0.3333333339691507
  0.0000000000000000  0.6666666663341729  0.6666666663341729
  0.3333333339691507  0.0000000000000000  0.0000000000000000
  0.3333333331670829  0.0000000008020606  0.3333333331670829
  0.3333333339691507  0.0000000000000000  0.6666666663341729
  0.3333333331670829  0.3333333331670829  0.0000000008020606
  0.3333333331670829  0.3333333331670829  0.3333333331670829
  0.3333333331670829  0.3333333331670829  0.6666666671362336
  0.3333333339691507  0.6666666663341729  0.0000000000000000
  0.3333333331670829  0.6666666671362336  0.3333333331670829
  0.3333333339691507  0.6666666663341729  0.6666666663341729
  0.6666666663341729  0.0000000000000000  0.0000000000000000
  0.6666666663341729  0.0000000000000000  0.3333333339691507
  0.6666666663341729  0.0000000000000000  0.6666666663341729
  0.6666666663341729  0.3333333339691507  0.0000000000000000
  0.6666666671362336  0.3333333331670829  0.3333333331670829
  0.6666666663341729  0.3333333339691507  0.6666666663341729
  0.6666666663341729  0.6666666663341729  0.0000000000000000
  0.6666666663341729  0.6666666663341729  0.3333333339691507
  0.6666666663341729  0.6666666663341729  0.6666666663341729

  0.00000000E+00  0.00000000E+00  0.00000000E+00
  0.00000000E+00  0.00000000E+00  0.00000000E+00
  0.00000000E+00  0.00000000E+00  0.00000000E+00
  0.00000000E+00  0.00000000E+00  0.00000000E+00
  0.00000000E+00  0.00000000E+00  0.00000000E+00
  0.00000000E+00  0.00000000E+00  0.00000000E+00
  0.00000000E+00  0.00000000E+00  0.00000000E+00
  0.00000000E+00  0.00000000E+00  0.00000000E+00
  0.00000000E+00  0.00000000E+00  0.00000000E+00
  0.00000000E+00  0.00000000E+00  0.00000000E+00
  0.00000000E+00  0.00000000E+00  0.00000000E+00
  0.00000000E+00  0.00000000E+00  0.00000000E+00
  0.00000000E+00  0.00000000E+00  0.00000000E+00
  0.00000000E+00  0.00000000E+00  0.00000000E+00
  0.00000000E+00  0.00000000E+00  0.00000000E+00
  0.00000000E+00  0.00000000E+00  0.00000000E+00
  0.00000000E+00  0.00000000E+00  0.00000000E+00
  0.00000000E+00  0.00000000E+00  0.00000000E+00
  0.00000000E+00  0.00000000E+00  0.00000000E+00
  0.00000000E+00  0.00000000E+00  0.00000000E+00
  0.00000000E+00  0.00000000E+00  0.00000000E+00
  0.00000000E+00  0.00000000E+00  0.00000000E+00
  0.00000000E+00  0.00000000E+00  0.00000000E+00
  0.00000000E+00  0.00000000E+00  0.00000000E+00
  0.00000000E+00  0.00000000E+00  0.00000000E+00
  0.00000000E+00  0.00000000E+00  0.00000000E+00
  0.00000000E+00  0.00000000E+00  0.00000000E+00
