Au
 1.0000000000000000
     0.0000000000000000    6.2339319781091369    6.2339319781091369
     6.2339319781091369    0.0000000000000000    6.2339319781091369
     6.2339319781091369    6.2339319781091369    0.0000000000000000
 Au 
  27
Cartesian
  0.0000000000000000  0.0000000000000000  0.0000000000000000
  2.0779773300000000  2.0779773300000000  0.0000000000000000
  4.1559546500000000  4.1559546500000000  0.0000000000000000
  2.0779773300000000  0.0000000000000000  2.0779773300000000
  4.1559546500000000  2.0779773300000000  2.0779773300000000
  6.2339319800000004  4.1559546500000000  2.0779773300000000
  4.1559546500000000  0.0000000000000000  4.1559546500000000
  6.2339319800000004  2.0779773300000000  4.1559546500000000
  8.3119092999999999  4.1559546500000000  4.1559546500000000
  0.0000000000000000  2.0779773300000000  2.0779773300000000
  2.0779773300000000  4.1559546500000000  2.0779773300000000
  4.1559546500000000  6.2339319800000004  2.0779773300000000
  2.0779773300000000  2.0779773300000000  4.1559546500000000
  4.1559546500000000  4.1559546500000000  4.1559546500000000
  6.2339319800000004  6.2339319800000004  4.1559546500000000
  4.1559546500000000  2.0779773300000000  6.2339319800000004
  6.2339319800000004  4.1559546500000000  6.2339319800000004
  8.3119092999999999  6.2339319800000004  6.2339319800000004
  0.0000000000000000  4.1559546500000000  4.1559546500000000
  2.0779773300000000  6.2339319800000004  4.1559546500000000
  4.1559546500000000  8.3119092999999999  4.1559546500000000
  2.0779773300000000  4.1559546500000000  6.2339319800000004
  4.1559546500000000  6.2339319800000004  6.2339319800000004
  6.2339319800000004  8.3119092999999999  6.2339319800000004
  4.1559546500000000  4.1559546500000000  8.3119092999999999
  6.2339319800000004  6.2339319800000004  8.3119092999999999
  8.3119092999999999  8.3119092999999999  8.3119092999999999
Cartesian
  0.0000000000000000  0.0000000000000000  0.0000000000000000
  0.0000000000000000  0.0000000000000000  0.0000000000000000
  0.0000000000000000  0.0000000000000000  0.0000000000000000
  0.0000000000000000  0.0000000000000000  0.0000000000000000
  0.0000000000000000  0.0000000000000000  0.0000000000000000
  0.0000000000000000  0.0000000000000000  0.0000000000000000
  0.0000000000000000  0.0000000000000000  0.0000000000000000
  0.0000000000000000  0.0000000000000000  0.0000000000000000
  0.0000000000000000  0.0000000000000000  0.0000000000000000
  0.0000000000000000  0.0000000000000000  0.0000000000000000
  0.0000000000000000  0.0000000000000000  0.0000000000000000
  0.0000000000000000  0.0000000000000000  0.0000000000000000
  0.0000000000000000  0.0000000000000000  0.0000000000000000
  0.0000000000000000  0.0000000000000000  0.0000000000000000
  0.0000000000000000  0.0000000000000000  0.0000000000000000
  0.0000000000000000  0.0000000000000000  0.0000000000000000
  0.0000000000000000  0.0000000000000000  0.0000000000000000
  0.0000000000000000  0.0000000000000000  0.0000000000000000
  0.0000000000000000  0.0000000000000000  0.0000000000000000
  0.0000000000000000  0.0000000000000000  0.0000000000000000
  0.0000000000000000  0.0000000000000000  0.0000000000000000
  0.0000000000000000  0.0000000000000000  0.0000000000000000
  0.0000000000000000  0.0000000000000000  0.0000000000000000
  0.0000000000000000  0.0000000000000000  0.0000000000000000
  0.0000000000000000  0.0000000000000000  0.0000000000000000
  0.0000000000000000  0.0000000000000000  0.0000000000000000
  0.0000000000000000  0.0000000000000000  0.0000000000000000
