Pt
 1.0000000000000000
    11.2223176341738373   -0.0096002396101975   -0.0029177644135213
    -0.0027237063296239    7.9304820134573788    0.0012196821239355
     0.0056334105436559   -0.0148152997941742   14.2079722793752428
 Pt 
  32
Direct
  0.0005400038893235  0.1259436673726819  0.4520438151253791
  0.1264925170944708  0.8727403114632932  0.5494066349594167
  0.1249419174667147  0.3778251751988391  0.5492216771703547
  0.4991063191982482  0.6274027627260729  0.6489450008363858
  0.5009239084122414  0.1235269584538223  0.6479965158501589
  0.0019905516555118  0.6240122739911330  0.6492271789363803
 -0.0000355178419340  0.1240442470016799  0.6487584343894832
  0.8747715417031861  0.8757701330683753  0.5493585638134126
  0.8740565027628934  0.3743952204090875  0.5490134949886423
  0.3752097016213876  0.8727387532232529  0.5498344250712699
  0.3748473906553159  0.3749141631599380  0.5508375042112821
  0.7506561397393549  0.6253199137314515  0.6483095064608221
  0.7506682291577729  0.1257657755806992  0.6478745902495442
  0.2485704366852638  0.6243444327184612  0.6481217563746238
  0.2507802810376549  0.1255664756969983  0.6479549083832155
  0.8749826215620312  0.8751815362634839  0.3520272352403968
  0.8756714379826688  0.3751527956753298  0.3517115987800047
  0.3750738244272291  0.8768181769320954  0.3517817876697596
  0.3744514072159899  0.3745748238788080  0.3529392118855054
  0.7511416268340095  0.6242565038339424  0.4506979901069592
  0.7500576621907215  0.1229888510226310  0.4512482167183475
  0.2496928711514274  0.6253629003134645  0.4512282248980555
  0.2499170682430358  0.1258558866466201  0.4496001899036509
  0.6247623085397459  0.8762205208795222  0.3510582214441195
  0.6236893869747051  0.3754457878622798  0.3516445961423382
  0.1259568015078933  0.8742382851352838  0.3504242464417006
  0.1240288259796009  0.3742305141771313  0.3514235414067035
  0.5009334882977825  0.6251954324844223  0.4504836749649241
  0.5016027777220446  0.1271376292800902  0.4496827925625563
  0.0002617365007206  0.6234825387656280  0.4499393697760953
  0.6253162716051277  0.3752440951919938  0.5495610382337267
  0.6253508870964650  0.8747619042280312  0.5490256217933763
