Pt
 1.0000000000000000
    19.9354000000000013    0.0000000000000000    0.0000000000000000
     0.0000000000000000   19.9354000000000013    0.0000000000000000
     0.0000000000000000    0.0000000000000000   19.9354000000000013
 Pt 
  38
Direct
  0.3009048025121141  0.4000186838488317  0.5004669903789238
  0.4992149558072574  0.6996547177382946  0.4012495259688794
  0.4001516734050984  0.5990556607843334  0.6009109749490855
  0.5005598658667496  0.5982604005939183  0.6994695411178105
  0.5004252284880162  0.6996279076416826  0.5991046264434121
  0.5989859792128575  0.2996476985663693  0.4999225292695406
  0.5988858071571174  0.5006257371309328  0.3022893490975851
  0.5989744735495650  0.4011754537155010  0.3995376857248913
  0.5988394288552022  0.4991557726456454  0.4990179299136209
  0.6989961997251121  0.3996734367005427  0.5000540405509796
  0.6997639003982864  0.5010874900930004  0.4021801328290378
  0.5996050352639023  0.4001375136691513  0.6002638983918055
  0.6003601196865875  0.5008577329775173  0.6981924636576140
  0.6987326273864582  0.5003131243917854  0.5968542211342636
  0.5985801538970875  0.5993413340088485  0.4000192180743802
  0.6008361713334068  0.6986931062331330  0.4996978821593748
  0.5011131976283395  0.6001626639044112  0.4993167350542251
  0.3998245598282452  0.6999229019733739  0.5004716975831937
  0.4003388976393751  0.6016917042045807  0.3998992942203316
  0.5009951167270282  0.5998602450916459  0.3017987018068360
  0.2998194392889031  0.4991302933475125  0.3994480446843303
  0.3019394855382886  0.4988309610040430  0.6000422640127612
  0.3021717467419766  0.5996445549123669  0.4986982593777902
  0.3997114810839010  0.3015335082315880  0.4974796598011577
  0.5003034290759152  0.3003916986867582  0.4004534411148008
  0.4992426908915797  0.3005390059893456  0.5999306861161551
  0.4008388620243385  0.4996317204570763  0.3020749079526872
  0.6982536522969189  0.6001545010383539  0.5013055730007926
  0.4997520601542983  0.4012184415662590  0.2994086905705428
  0.4013519377589614  0.4987634113185588  0.5003249019332443
  0.4974140022271938  0.4004185624567352  0.5002999749189883
  0.4993930931910069  0.5006927606167922  0.4012176781002638
  0.4018778203597619  0.4000161491617926  0.6000033919560178
  0.4009329283585982  0.5001057039236735  0.6994607898512194
  0.5009551491316954  0.4014179735545813  0.7006702784995534
  0.4993113205654263  0.4985863032595282  0.5996414077470228
  0.4003935607010644  0.4011271100655115  0.3993360539542722
  0.5982713780511050  0.5997276447926803  0.6013838794305606
