Pt
 1.0000000000000000
     7.8989598472351776    0.0319956590385456   -0.0028147720095859
     0.0161161680753853    7.9612889684938217   -0.0011927649519913
     0.0416544923513940   -0.0255286457644364   15.9450344233906964
 Pt 
  32
Direct
  0.1269090761074600  0.1265750977927176  0.3157241220546144
  0.3772826646103102  0.8741864966702073  0.5615950010470143
  0.3799497620017147  0.3706943173763866  0.5605672459403876
  0.8798027694726267  0.6253380864857400  0.6838486111743025
  0.8795799018186005  0.1277531676194343  0.6858727586279546
  0.3759512084261964  0.6329680337263324  0.6858703417398599
  0.3748581346730933  0.1244047688322060  0.6879447095919505
  0.6266181764440605  0.8745387041882213  0.6905313293188794
  0.6288860753222304  0.3772866840866343  0.6840190654750787
  0.1244954943321734  0.8820862166985696  0.6850411029488334
  0.1215477044959448  0.3765610167837554  0.6873595237763634
  0.6229264154881988  0.6291001178731728  0.5629362336930906
  0.6364320690659163  0.1283728319895256  0.5604455006180221
  0.1207068155118564  0.6257647498487642  0.5654950947738412
  0.1262378059411832  0.1255751179465540  0.5599456059589765
  0.8744943231721323  0.8730449744731231  0.3119419862959926
  0.8784357222053738  0.3758231084305730  0.3168184941328420
  0.3833102020500717  0.8748660101627781  0.3138457959677564
  0.3792546113085032  0.3739999023042441  0.3165979793580431
  0.8769421396063786  0.6279540098812174  0.4406866462084943
  0.8743118371897838  0.1260048749930600  0.4407380163680596
  0.3805771426286808  0.6219514797635821  0.4350572049966333
  0.3783548838008063  0.1254997570118896  0.4367029496175608
  0.6234105198236864  0.8766166573484504  0.4356068975252728
  0.6296424908651997  0.3803123113944213  0.4341485969512952
  0.1236075052606121  0.8769031297471388  0.4369552928681513
  0.1232877149343077  0.3752961196751892  0.4388920306500749
  0.6269263552653753  0.6222229525460165  0.3159662297809984
  0.6323773591827285  0.1253648190935864  0.3149415652239576
  0.1275993830072406  0.6228970654573144  0.3153615024865408
  0.8702085112742315  0.3733051305747461  0.5632559940203852
  0.8750275856251969  0.8776663008743641  0.5623813178856716
