Au                                      
   1.0000000000000000     
    -0.1215690348548953    6.3405841749042890    6.2245494047438505
     6.2876525383604216    0.0861947026739203    6.2299560949358330
     6.3727802859471172    6.1488364922276819   -0.0217949829267952
   Au
    27
Direct
  0.0087625306592827  0.0106452281572018  0.9976145445524836
  0.9980335234742057  0.0182554396029815  0.3260478320223967
  0.9918772341293405  0.0208746254218468  0.6764319320999590
  0.0004294127253175  0.3543365370563265  0.9872759439793839
  0.0084990387193997  0.3339956772620383  0.3257934023827218
  0.0033782014095181  0.3226309323120375  0.6715345817925851
  0.9869410790033015  0.6485425082445317  0.0367787921225968
  0.9976673377594381  0.6501835921866714  0.3429501016235292
  0.9897084263031104  0.6674909462183933  0.6794981133344180
  0.3042430853532991  0.0055793066808647  0.0168970765665435
  0.3487931167689098  0.0094395820030826  0.3215436699340657
  0.3473975827879840  0.0104250226228473  0.6647608043596378
  0.3353999314343810  0.3581066772222385  0.9932355973137135
  0.3177813681610431  0.3523006716089156  0.3486647542225967
  0.3418532111800658  0.3535447769286648  0.6611631708309318
  0.3240439530915964  0.6630997461093742  0.0012034949383164
  0.3229161117835986  0.6580249291145961  0.3467311338301400
  0.3571948798243554  0.6710068701147804  0.6451804459236641
  0.6435435020231779  0.0083886689709800  0.0385057346509114
  0.6826970850147589  0.9904080026143802  0.3345867073332229
  0.6803086837715924  0.9932438381139619  0.6593600343931172
  0.6766507642672082  0.3105423214707841  0.0206194390180769
  0.6533206121062989  0.3251405813794790  0.3571819209661697
  0.6786284956232649  0.3552837037482703  0.6520062034289182
  0.6713685473273543  0.6738308951844587  0.9924603767828515
  0.6789566104324436  0.6486484116981543  0.3553277040657790
  0.6604670353052597  0.6671277034493528  0.6850243341447424

  0.00000000E+00  0.00000000E+00  0.00000000E+00
  0.00000000E+00  0.00000000E+00  0.00000000E+00
  0.00000000E+00  0.00000000E+00  0.00000000E+00
  0.00000000E+00  0.00000000E+00  0.00000000E+00
  0.00000000E+00  0.00000000E+00  0.00000000E+00
  0.00000000E+00  0.00000000E+00  0.00000000E+00
  0.00000000E+00  0.00000000E+00  0.00000000E+00
  0.00000000E+00  0.00000000E+00  0.00000000E+00
  0.00000000E+00  0.00000000E+00  0.00000000E+00
  0.00000000E+00  0.00000000E+00  0.00000000E+00
  0.00000000E+00  0.00000000E+00  0.00000000E+00
  0.00000000E+00  0.00000000E+00  0.00000000E+00
  0.00000000E+00  0.00000000E+00  0.00000000E+00
  0.00000000E+00  0.00000000E+00  0.00000000E+00
  0.00000000E+00  0.00000000E+00  0.00000000E+00
  0.00000000E+00  0.00000000E+00  0.00000000E+00
  0.00000000E+00  0.00000000E+00  0.00000000E+00
  0.00000000E+00  0.00000000E+00  0.00000000E+00
  0.00000000E+00  0.00000000E+00  0.00000000E+00
  0.00000000E+00  0.00000000E+00  0.00000000E+00
  0.00000000E+00  0.00000000E+00  0.00000000E+00
  0.00000000E+00  0.00000000E+00  0.00000000E+00
  0.00000000E+00  0.00000000E+00  0.00000000E+00
  0.00000000E+00  0.00000000E+00  0.00000000E+00
  0.00000000E+00  0.00000000E+00  0.00000000E+00
  0.00000000E+00  0.00000000E+00  0.00000000E+00
  0.00000000E+00  0.00000000E+00  0.00000000E+00
