Au
 1.0000000000000000
    -0.1215690348548953    6.3405841749042890    6.2245494047438505
     6.2876525383604216    0.0861947026739203    6.2299560949358330
     6.3727802859471172    6.1488364922276819   -0.0217949829267952
 Au 
  27
Cartesian
  0.0506662600000000  0.0418093500000000  0.1209141000000000
  2.1928541199999998  1.9939197200000001  0.0943839500000000
  4.4429919499999997  4.1095655500000001  0.0647446200000000
  2.1468052100000001 -0.0449734800000000  2.2104512900000000
  4.1752253200000000  2.0859278899999998  2.1265804300000002
  6.3077228600000002  4.1783851900000002  2.0163682399999998
  4.3137806699999999  0.1992465200000000  3.9583038600000000
  6.2739577400000002  2.1499960400000000  4.0286208700000001
  8.5284944599999992  4.1704023899999996  4.0795692299999997
  0.1057755600000000  2.0334571600000002  1.9281666799999999
  2.0660775299999998  4.1894852100000000  2.2228801300000001
  4.2596906800000003  6.2911076899999996  2.2128524000000001
  2.1677680600000002  2.1159051899999999  4.3188497500000000
  4.3984757099999996  4.1891685299999999  4.1652643999999999
  6.3948555699999998  6.2634069800000001  4.3160406000000000
  4.1376166999999997  2.1191837400000000  6.1480836700000001
  6.3078168500000000  4.2361880999999997  6.1019167100000002
  8.2872274400000006  6.2897705100000003  6.3896588200000002
  0.2198986600000000  4.3179302699999997  4.0571901300000004
  1.9889416000000000  6.3851905100000002  4.1824317000000004
  4.0767717599999997  8.3672691700000001  4.1781536800000003
  2.0017255899999999  4.4439137899999999  6.1460617400000004
  4.2411893500000000  6.3667129600000001  6.0844531999999996
  6.3064925499999998  8.3426042099999993  6.4233480099999998
  4.1071485499999998  4.2685895299999999  8.3770679099999992
  6.2603611199999998  6.5457435500000001  8.2595057300000008
  8.4798844300000003  8.4573523300000009  8.2523558999999995
Cartesian
  0.0000000000000000  0.0000000000000000  0.0000000000000000
  0.0000000000000000  0.0000000000000000  0.0000000000000000
  0.0000000000000000  0.0000000000000000  0.0000000000000000
  0.0000000000000000  0.0000000000000000  0.0000000000000000
  0.0000000000000000  0.0000000000000000  0.0000000000000000
  0.0000000000000000  0.0000000000000000  0.0000000000000000
  0.0000000000000000  0.0000000000000000  0.0000000000000000
  0.0000000000000000  0.0000000000000000  0.0000000000000000
  0.0000000000000000  0.0000000000000000  0.0000000000000000
  0.0000000000000000  0.0000000000000000  0.0000000000000000
  0.0000000000000000  0.0000000000000000  0.0000000000000000
  0.0000000000000000  0.0000000000000000  0.0000000000000000
  0.0000000000000000  0.0000000000000000  0.0000000000000000
  0.0000000000000000  0.0000000000000000  0.0000000000000000
  0.0000000000000000  0.0000000000000000  0.0000000000000000
  0.0000000000000000  0.0000000000000000  0.0000000000000000
  0.0000000000000000  0.0000000000000000  0.0000000000000000
  0.0000000000000000  0.0000000000000000  0.0000000000000000
  0.0000000000000000  0.0000000000000000  0.0000000000000000
  0.0000000000000000  0.0000000000000000  0.0000000000000000
  0.0000000000000000  0.0000000000000000  0.0000000000000000
  0.0000000000000000  0.0000000000000000  0.0000000000000000
  0.0000000000000000  0.0000000000000000  0.0000000000000000
  0.0000000000000000  0.0000000000000000  0.0000000000000000
  0.0000000000000000  0.0000000000000000  0.0000000000000000
  0.0000000000000000  0.0000000000000000  0.0000000000000000
  0.0000000000000000  0.0000000000000000  0.0000000000000000
