Pt
 1.0000000000000000
     7.8737282884125976    0.0032839001785131    0.0203062311906295
     0.0021915990561457    7.9529346070994178    0.0004983243708206
     0.0385218092819986    0.0049378874438986    7.9486972703866314
 Pt 
  32
Direct
  0.1269531106476763  0.1211973129821609  0.1267068075371668
  0.6304126330869921  0.8706120884250991  0.8721463369768830
  0.6268591815042533  0.6231276818402487  0.6225661293282224
  0.8768050080554303  0.8707916770706309  0.1278392299412991
  0.8784265139792570  0.6272914328417796  0.3731454089419984
  0.6156081487267789  0.8730007609421108  0.3792938966598170
  0.6282801155234395  0.6194854689967648  0.1196171122980618
  0.8718131333796110  0.3753916619841991  0.6156910054151241
  0.8787036402550388  0.1251099943218899  0.8707431004020453
  0.6262569382491500  0.3688713936367060  0.8789553742662788
  0.6274286714650604  0.1202307632430985  0.6260934609955384
  0.8735339346611243  0.3769751659897446  0.1249943718147386
  0.8729124586806162  0.1184140808543736  0.3770480894206623
  0.6269831236216427  0.3739872317618682  0.3744378415159323
  0.6242647562443332  0.1292519929740232  0.1223699208851808
  0.3742469651248974  0.8739405905471338  0.6233927460251408
  0.3804964845632002  0.6242556171960243  0.8757744888038699
  0.1272357554834224  0.8709503470213336  0.8790853655456754
  0.1258023248766255  0.6269260065318035  0.6215784220146378
  0.3717886909846889  0.8731220464607642  0.1249326840754181
  0.3753010402336531  0.6234421485213596  0.3742370331522055
  0.1264686508708522  0.8768457536937618  0.3757173399790667
  0.1234392181979823  0.6316431203226094  0.1216546521578281
  0.3706870205222585  0.3781235789173548  0.6192859456110494
  0.3725878358002854  0.1280013873162686  0.8789924526483796
  0.1238321959233168  0.3790761956484992  0.8758628823154830
  0.1233765419333344  0.1329209150299361  0.6233594098676297
  0.3815866281243751  0.3740693724870233  0.1246888882682479
  0.3708050771699923  0.1233285641435436  0.3732238413204653
  0.1253758388909543  0.3711355031221886  0.3763636935210850
  0.8739282900127859  0.6298086118139675  0.8673814534118485
  0.8786836607684236  0.8718157667781640  0.6255646730845611
