Au                                      
   1.0000000000000000     
     8.2042332860231131    0.0854337521056387   -0.0776136724661359
    -0.0199347042222563    8.2558974074716698    0.0537032383653490
    -0.0143095486656601   -0.0299145564484481    8.2230044808351206
   Au
    32
Direct
  0.0051499020330255  0.9848893813901753  0.0007577731444997
  0.0040190208969619  0.2311968256270021  0.2544765575177053
  0.2464721206386287  0.9993292294311900  0.2577305489659381
  0.2345870623103394  0.2467543795167728  0.9961836326472806
  0.9791950624441270  0.0181762617646513  0.4821207537357566
  0.9782840234509322  0.2726097051731031  0.7466880169701255
  0.2626141267832836  0.0010991120605297  0.7627773675136282
  0.2449955997761251  0.2530374546621204  0.5113968279227450
  0.0092350134633463  0.5004941066813871  0.9875595566997646
  0.0168544229393177  0.7464399169692513  0.2492432720487869
  0.2592277673423382  0.4932338384314932  0.2526094214681152
  0.2460095720930440  0.7506449482906490  0.9900678227253579
  0.9898492499326892  0.5118344773574748  0.5169974033184630
  0.0133844973669142  0.7459286806559291  0.7540154792210743
  0.2321012036998980  0.4843178304663240  0.7620316108927199
  0.2527979917052079  0.7413201592180272  0.4874884765848577
  0.5093685365871181  0.9895925771328535  0.9863728488550692
  0.5037295452656210  0.2556363532123314  0.2295758872959581
  0.7548992738044902  0.9834856221326262  0.2463682861020757
  0.7624418883664319  0.2598242751967348  0.0185826348958287
  0.5180692136531917  0.9907697019968111  0.4902838336709365
  0.5128462680348989  0.2713571077501342  0.7553808576062266
  0.7407479759189570  0.9910691216427523  0.7515663322664921
  0.7388782262583007  0.2575774950074603  0.4849542896793153
  0.4991072496022468  0.4908384728857413  0.9880192380848385
  0.5088010935323481  0.7519711558158164  0.2389750388412324
  0.7483488230121509  0.5162215927403437  0.2396601477949432
  0.7612539484765577  0.7390577079508844  0.9919205276137149
  0.5017215383294555  0.4786432845457824  0.4788881139394974
  0.5112272692178550  0.7595600518331906  0.7342561329480475
  0.7382528486593714  0.5008722724883441  0.7595909641433920
  0.7601600659850831  0.7443166482992467  0.4919074663558334

  0.00000000E+00  0.00000000E+00  0.00000000E+00
  0.00000000E+00  0.00000000E+00  0.00000000E+00
  0.00000000E+00  0.00000000E+00  0.00000000E+00
  0.00000000E+00  0.00000000E+00  0.00000000E+00
  0.00000000E+00  0.00000000E+00  0.00000000E+00
  0.00000000E+00  0.00000000E+00  0.00000000E+00
  0.00000000E+00  0.00000000E+00  0.00000000E+00
  0.00000000E+00  0.00000000E+00  0.00000000E+00
  0.00000000E+00  0.00000000E+00  0.00000000E+00
  0.00000000E+00  0.00000000E+00  0.00000000E+00
  0.00000000E+00  0.00000000E+00  0.00000000E+00
  0.00000000E+00  0.00000000E+00  0.00000000E+00
  0.00000000E+00  0.00000000E+00  0.00000000E+00
  0.00000000E+00  0.00000000E+00  0.00000000E+00
  0.00000000E+00  0.00000000E+00  0.00000000E+00
  0.00000000E+00  0.00000000E+00  0.00000000E+00
  0.00000000E+00  0.00000000E+00  0.00000000E+00
  0.00000000E+00  0.00000000E+00  0.00000000E+00
  0.00000000E+00  0.00000000E+00  0.00000000E+00
  0.00000000E+00  0.00000000E+00  0.00000000E+00
  0.00000000E+00  0.00000000E+00  0.00000000E+00
  0.00000000E+00  0.00000000E+00  0.00000000E+00
  0.00000000E+00  0.00000000E+00  0.00000000E+00
  0.00000000E+00  0.00000000E+00  0.00000000E+00
  0.00000000E+00  0.00000000E+00  0.00000000E+00
  0.00000000E+00  0.00000000E+00  0.00000000E+00
  0.00000000E+00  0.00000000E+00  0.00000000E+00
  0.00000000E+00  0.00000000E+00  0.00000000E+00
  0.00000000E+00  0.00000000E+00  0.00000000E+00
  0.00000000E+00  0.00000000E+00  0.00000000E+00
  0.00000000E+00  0.00000000E+00  0.00000000E+00
  0.00000000E+00  0.00000000E+00  0.00000000E+00
