Au
 1.0000000000000000
     8.2042332860231131    0.0854337521056387   -0.0776136724661359
    -0.0199347042222563    8.2558974074716698    0.0537032383653490
    -0.0143095486656601   -0.0299145564484481    8.2230044808351206
 Au 
  32
Cartesian
  0.0425413800000000 -0.1243344100000000  0.0050199800000000
  0.0247227000000000  1.9014680799999999  2.1046659600000002
  2.0184401400000000  0.0078093300000000  2.1001538300000000
  1.9197426200000001  2.0573346600000000 -0.0363376600000000
 -0.1779498300000000  0.1338614800000000  3.9670719900000000
 -0.1942821000000000  2.2264456400000001  6.1563443900000001
  2.1436106499999998  0.0086921200000000  6.2519982900000004
  1.9976389699999999  2.0946839499999999  4.1997923300000002
  0.0659670200000000  4.1331891299999999 -0.0761364300000000
  0.1198310000000000  6.1565153099999996  2.0883066499999998
  2.1133178799999999  4.0866780699999996  2.0835770400000002
  2.0034981599999999  6.2185623200000002 -0.0604539800000000
 -0.1008803900000000  4.2093199700000001  4.2795469700000002
  0.0841500500000000  6.1368981099999997  6.2392926299999996
  1.8836533600000001  3.9955117599999999  6.2741845600000001
  2.0522599600000002  6.1272776599999998  4.0288106399999997
  4.1793807699999999 -0.0419977000000000 -0.1521490000000000
  4.1243335400000003  2.1466753500000002  1.8624357499999999
  6.1901735400000000 -0.0792171300000000  1.9664101400000000
  6.2498056899999996  2.2096649400000001  0.1075825800000000
  4.2435289500000000 -0.0466104200000000  3.9909012100000001
  4.1912918399999999  2.2615139399999999  6.1862690499999999
  6.0666926600000002 -0.0329303100000000  6.1221615299999996
  6.0498551300000001  2.1751513199999999  3.9442669900000000
  4.0851790299999999  4.0953110800000001 -0.1108957900000000
  4.1559129199999996  6.2445166700000003  1.9659861800000000
  6.1259081699999998  4.3186374299999999  1.9403671400000000
  6.2308877000000003  6.1668630899999997 -0.0858314600000000
  4.0998462599999996  3.9801680799999999  3.9246633499999999
  4.1685793000000002  6.2925609800000002  6.0389040800000000
  6.0359444499999997  4.1754989800000004  6.2157198500000002
  6.2146538099999997  6.1952300200000003  4.0259307000000000
Cartesian
  0.0000000000000000  0.0000000000000000  0.0000000000000000
  0.0000000000000000  0.0000000000000000  0.0000000000000000
  0.0000000000000000  0.0000000000000000  0.0000000000000000
  0.0000000000000000  0.0000000000000000  0.0000000000000000
  0.0000000000000000  0.0000000000000000  0.0000000000000000
  0.0000000000000000  0.0000000000000000  0.0000000000000000
  0.0000000000000000  0.0000000000000000  0.0000000000000000
  0.0000000000000000  0.0000000000000000  0.0000000000000000
  0.0000000000000000  0.0000000000000000  0.0000000000000000
  0.0000000000000000  0.0000000000000000  0.0000000000000000
  0.0000000000000000  0.0000000000000000  0.0000000000000000
  0.0000000000000000  0.0000000000000000  0.0000000000000000
  0.0000000000000000  0.0000000000000000  0.0000000000000000
  0.0000000000000000  0.0000000000000000  0.0000000000000000
  0.0000000000000000  0.0000000000000000  0.0000000000000000
  0.0000000000000000  0.0000000000000000  0.0000000000000000
  0.0000000000000000  0.0000000000000000  0.0000000000000000
  0.0000000000000000  0.0000000000000000  0.0000000000000000
  0.0000000000000000  0.0000000000000000  0.0000000000000000
  0.0000000000000000  0.0000000000000000  0.0000000000000000
  0.0000000000000000  0.0000000000000000  0.0000000000000000
  0.0000000000000000  0.0000000000000000  0.0000000000000000
  0.0000000000000000  0.0000000000000000  0.0000000000000000
  0.0000000000000000  0.0000000000000000  0.0000000000000000
  0.0000000000000000  0.0000000000000000  0.0000000000000000
  0.0000000000000000  0.0000000000000000  0.0000000000000000
  0.0000000000000000  0.0000000000000000  0.0000000000000000
  0.0000000000000000  0.0000000000000000  0.0000000000000000
  0.0000000000000000  0.0000000000000000  0.0000000000000000
  0.0000000000000000  0.0000000000000000  0.0000000000000000
  0.0000000000000000  0.0000000000000000  0.0000000000000000
  0.0000000000000000  0.0000000000000000  0.0000000000000000
