Au                                      
   1.0000000000000000     
     0.1120413814907297    6.1896128337525571    6.1478438080261819
     6.0744087185409619   -0.1274685846200810    6.2975242678698535
     6.2688427570984748    5.9837100718387832   -0.0692410829410315
   Au
    27
Direct
  0.9922080431958733  0.9958362779911027  0.0241008104256863
  0.9674380423408735  0.9960681775457232  0.3684701599351214
  0.9971948831837594  0.9946291645912382  0.6754886208943773
  0.0073944552978915  0.3255814672249002  0.0094730932339218
  0.9714702844413523  0.3290478499112766  0.3521876598238975
  0.9986655457586977  0.3314327160320119  0.6736700835955958
  0.9815055401249850  0.6897167919278431  0.9874556337711269
  0.0029944616538344  0.6753279783817803  0.3155118932250929
  0.9986830608033443  0.6658502090753018  0.6548410568743677
  0.3410015090260003  0.0055485266453275  0.9714222695108674
  0.3255963980277201  0.9901092548227126  0.3569243966058551
  0.3174158937469613  0.9990404967966882  0.6804818791396201
  0.3340700572021333  0.3339013813702962  0.0062882446848960
  0.3193817748974439  0.3448881938333770  0.3300378416465222
  0.3273145161846642  0.3277400234055747  0.6793849915939347
  0.3610259507569324  0.6587231749509002  0.9901583855754410
  0.3607584961376986  0.6342164526238818  0.3382581143938310
  0.3399775563396119  0.6720264940836742  0.6470766754463924
  0.6631877406150863  0.9872378822315611  0.0136067823198829
  0.6762535255385629  0.9673267168567179  0.3332593187768111
  0.6720820649772037  0.9949748527701558  0.6977560571537254
  0.6348505666520339  0.3398055156695747  0.9902427363566986
  0.6803152549698481  0.3002016216304497  0.3424799878415783
  0.6729038931424824  0.3545965894964240  0.6621137128858194
  0.6852130707036750  0.6612618467511240  0.0019653250650435
  0.6588021111032845  0.6616440853190255  0.3353434473259966
  0.7009933484485842  0.6545923072043038  0.6525173349132842

  0.00000000E+00  0.00000000E+00  0.00000000E+00
  0.00000000E+00  0.00000000E+00  0.00000000E+00
  0.00000000E+00  0.00000000E+00  0.00000000E+00
  0.00000000E+00  0.00000000E+00  0.00000000E+00
  0.00000000E+00  0.00000000E+00  0.00000000E+00
  0.00000000E+00  0.00000000E+00  0.00000000E+00
  0.00000000E+00  0.00000000E+00  0.00000000E+00
  0.00000000E+00  0.00000000E+00  0.00000000E+00
  0.00000000E+00  0.00000000E+00  0.00000000E+00
  0.00000000E+00  0.00000000E+00  0.00000000E+00
  0.00000000E+00  0.00000000E+00  0.00000000E+00
  0.00000000E+00  0.00000000E+00  0.00000000E+00
  0.00000000E+00  0.00000000E+00  0.00000000E+00
  0.00000000E+00  0.00000000E+00  0.00000000E+00
  0.00000000E+00  0.00000000E+00  0.00000000E+00
  0.00000000E+00  0.00000000E+00  0.00000000E+00
  0.00000000E+00  0.00000000E+00  0.00000000E+00
  0.00000000E+00  0.00000000E+00  0.00000000E+00
  0.00000000E+00  0.00000000E+00  0.00000000E+00
  0.00000000E+00  0.00000000E+00  0.00000000E+00
  0.00000000E+00  0.00000000E+00  0.00000000E+00
  0.00000000E+00  0.00000000E+00  0.00000000E+00
  0.00000000E+00  0.00000000E+00  0.00000000E+00
  0.00000000E+00  0.00000000E+00  0.00000000E+00
  0.00000000E+00  0.00000000E+00  0.00000000E+00
  0.00000000E+00  0.00000000E+00  0.00000000E+00
  0.00000000E+00  0.00000000E+00  0.00000000E+00
