Au
 1.0000000000000000
     0.1120413814907297    6.1896128337525571    6.1478438080261819
     6.0744087185409619   -0.1274685846200810    6.2975242678698535
     6.2688427570984748    5.9837100718387832   -0.0692410829410315
 Au 
  27
Cartesian
  0.1249190200000000  0.0965138100000000 -0.0757936400000000
  2.2823497100000001  2.0037738799999998 -0.2504598500000000
  4.2015930099999999  4.0252500900000001 -0.0978399500000000
  2.0379287200000000  0.0609516500000000  2.0951612200000000
  4.2033836800000000  1.8888576900000000  1.8724047300000000
  6.2362400899999999  3.9805394500000002  2.0323559100000002
  4.1089108899999998 -0.2774526200000000  4.2306757700000004
  6.0804481099999999  1.8203831500000001  4.2494574299999996
  8.1495943799999999  3.8253526999999998  4.1397696100000001
 -0.1072390000000000  1.9389592000000000  2.1333447500000000
  2.2139027599999999  4.1523085100000001  1.9147147600000001
  4.2955692000000001  6.0366100700000001  1.8982635400000001
  2.1051031500000001  2.0628294100000000  4.1561271800000004
  4.1997311599999998  3.9077378800000000  4.1125988600000003
  6.2864573100000003  6.0494163900000002  4.0291879200000000
  3.9801081100000002  2.0917549800000002  6.3685377799999996
  6.0133967600000000  4.1761512300000003  6.1884590299999997
  8.1766770799999993  5.8905864000000001  6.2774277800000000
  0.0820809300000000  4.1879211600000001  3.9958627500000001
  1.9664477700000000  6.1840394600000002  3.9286650200000000
  4.4188992100000002  8.3357382700000002  4.0518961899999999
  2.0740803699999999  3.8277800499999999  6.0435712099999996
  4.0467240000000002  6.2219227100000003  6.0492852399999997
  6.3800444499999998  8.0817111399999995  6.3241431900000000
  4.1058672600000001  4.1686734400000001  8.3767593799999993
  6.1951250399999997  5.9999891300000003  8.1937126199999994
  8.1453300500000001  8.1599120200000002  8.3867275499999998
Cartesian
  0.0000000000000000  0.0000000000000000  0.0000000000000000
  0.0000000000000000  0.0000000000000000  0.0000000000000000
  0.0000000000000000  0.0000000000000000  0.0000000000000000
  0.0000000000000000  0.0000000000000000  0.0000000000000000
  0.0000000000000000  0.0000000000000000  0.0000000000000000
  0.0000000000000000  0.0000000000000000  0.0000000000000000
  0.0000000000000000  0.0000000000000000  0.0000000000000000
  0.0000000000000000  0.0000000000000000  0.0000000000000000
  0.0000000000000000  0.0000000000000000  0.0000000000000000
  0.0000000000000000  0.0000000000000000  0.0000000000000000
  0.0000000000000000  0.0000000000000000  0.0000000000000000
  0.0000000000000000  0.0000000000000000  0.0000000000000000
  0.0000000000000000  0.0000000000000000  0.0000000000000000
  0.0000000000000000  0.0000000000000000  0.0000000000000000
  0.0000000000000000  0.0000000000000000  0.0000000000000000
  0.0000000000000000  0.0000000000000000  0.0000000000000000
  0.0000000000000000  0.0000000000000000  0.0000000000000000
  0.0000000000000000  0.0000000000000000  0.0000000000000000
  0.0000000000000000  0.0000000000000000  0.0000000000000000
  0.0000000000000000  0.0000000000000000  0.0000000000000000
  0.0000000000000000  0.0000000000000000  0.0000000000000000
  0.0000000000000000  0.0000000000000000  0.0000000000000000
  0.0000000000000000  0.0000000000000000  0.0000000000000000
  0.0000000000000000  0.0000000000000000  0.0000000000000000
  0.0000000000000000  0.0000000000000000  0.0000000000000000
  0.0000000000000000  0.0000000000000000  0.0000000000000000
  0.0000000000000000  0.0000000000000000  0.0000000000000000
