Au                                      
   1.0000000000000000     
     8.1948739495537186    0.1066521967951519   -0.0093825733652865
     0.0537205602512843    8.4026376870825334   -0.0039758831733043
     0.1388483078379802   -0.0850954858814547    8.2946480014818178
   Au
    32
Direct
  0.0059024390602715  0.0050485437312489  0.0145864601446561
  0.0082059351209978  0.2433920421219682  0.2622608784272060
  0.2735617676442530  0.0010287130084023  0.2595844649481123
  0.2559973424546129  0.2413156079597911  0.0161334159675164
  0.9943950828053545  0.0010435038266223  0.5068893772889922
  0.9955779988060556  0.2560018458211957  0.7444818119560139
  0.2651789648178706  0.0164431847223909  0.7265158914757137
  0.2450731614448074  0.2550271509299193  0.4858409379584643
  0.0108749415047882  0.5014220305350321  0.9928752661187090
  0.0182169643924368  0.7400605901877668  0.2323317729828176
  0.2475058469102009  0.5033565745912512  0.2687211402224534
  0.2559344060203586  0.7594361070464473  0.0184005135061938
  0.0133949978222248  0.4968979922253567  0.5201890745870230
  0.0266669595694324  0.7493657841249615  0.7525649363783913
  0.2607177026087939  0.5026917961616348  0.7716018830072926
  0.2485415051951492  0.7437550869413627  0.4903421207886609
  0.5041749493232075  0.0016565510489031  0.9856622733991429
  0.4858900838068152  0.2527211151712336  0.2712080583270406
  0.7868446125257051  0.0102348214740147  0.2388936720888708
  0.7432100391651275  0.2630502600701092  0.0048206108099933
  0.4888109301342709  0.0050724750976201  0.5051719194393272
  0.4984175043037311  0.2723110819326706  0.7403291815098356
  0.7626869329461456  0.0069716569474494  0.7337863298731122
  0.7548397855258457  0.2487202233101158  0.5255064098487026
  0.4994244231467064  0.4982019178491015  0.0089276481532963
  0.5030060969323387  0.7751017746137734  0.2456472011044895
  0.7647391427524823  0.5085292288422281  0.2456664132766377
  0.7656756574183561  0.7507818695413633  0.9826944131996100
  0.5161138275176143  0.4861714282614429  0.4896498158724683
  0.5074001356450992  0.7473336042130612  0.7462322595237652
  0.7345297950890597  0.4948413011890906  0.7568568659903008
  0.7500326913007100  0.7584316250611778  0.5012686580004200

  0.00000000E+00  0.00000000E+00  0.00000000E+00
  0.00000000E+00  0.00000000E+00  0.00000000E+00
  0.00000000E+00  0.00000000E+00  0.00000000E+00
  0.00000000E+00  0.00000000E+00  0.00000000E+00
  0.00000000E+00  0.00000000E+00  0.00000000E+00
  0.00000000E+00  0.00000000E+00  0.00000000E+00
  0.00000000E+00  0.00000000E+00  0.00000000E+00
  0.00000000E+00  0.00000000E+00  0.00000000E+00
  0.00000000E+00  0.00000000E+00  0.00000000E+00
  0.00000000E+00  0.00000000E+00  0.00000000E+00
  0.00000000E+00  0.00000000E+00  0.00000000E+00
  0.00000000E+00  0.00000000E+00  0.00000000E+00
  0.00000000E+00  0.00000000E+00  0.00000000E+00
  0.00000000E+00  0.00000000E+00  0.00000000E+00
  0.00000000E+00  0.00000000E+00  0.00000000E+00
  0.00000000E+00  0.00000000E+00  0.00000000E+00
  0.00000000E+00  0.00000000E+00  0.00000000E+00
  0.00000000E+00  0.00000000E+00  0.00000000E+00
  0.00000000E+00  0.00000000E+00  0.00000000E+00
  0.00000000E+00  0.00000000E+00  0.00000000E+00
  0.00000000E+00  0.00000000E+00  0.00000000E+00
  0.00000000E+00  0.00000000E+00  0.00000000E+00
  0.00000000E+00  0.00000000E+00  0.00000000E+00
  0.00000000E+00  0.00000000E+00  0.00000000E+00
  0.00000000E+00  0.00000000E+00  0.00000000E+00
  0.00000000E+00  0.00000000E+00  0.00000000E+00
  0.00000000E+00  0.00000000E+00  0.00000000E+00
  0.00000000E+00  0.00000000E+00  0.00000000E+00
  0.00000000E+00  0.00000000E+00  0.00000000E+00
  0.00000000E+00  0.00000000E+00  0.00000000E+00
  0.00000000E+00  0.00000000E+00  0.00000000E+00
  0.00000000E+00  0.00000000E+00  0.00000000E+00
