Au
 1.0000000000000000
     8.1948739495537186    0.1066521967951519   -0.0093825733652865
     0.0537205602512843    8.4026376870825334   -0.0039758831733043
     0.1388483078379802   -0.0850954858814547    8.2946480014818178
 Au 
  32
Cartesian
  0.0506662600000000  0.0418093500000000  0.1209141000000000
  0.1167362400000000  2.0236931100000000  2.1743169800000000
  2.2779023299999999  0.0157304000000000  2.1505909600000002
  2.1130696599999998  2.0536174200000001  0.1304596500000000
  0.0245052000000000 -0.0349635900000000  4.2045174000000003
  0.0808848600000000  2.0872671000000000  6.1742382300000003
  2.2748670299999998  0.1046248200000000  6.0236401500000003
  2.0895020600000000  2.1276954699999999  4.0265661899999996
  0.1150661900000000  4.2150337699999998 -0.0611927900000000
  0.2213010700000000  6.2006335000000004  1.9239969600000000
  2.0926312899999999  4.2330530099999999  2.2246237400000002
  2.1407024099999998  6.4069966200000001  0.1472050300000000
  0.2086913300000000  4.1324166599999996  4.3126839800000001
  0.3632810900000000  6.2354533900000000  6.2390316500000003
  2.2706892100000000  4.1860833099999999  6.3957211699999998
  2.1448044199999998  6.2342861200000002  4.0619262500000000
  4.1297483799999997  0.0689108400000000 -0.1236634400000000
  4.0330410900000002  2.1522666300000002  2.2440116899999998
  6.4818122200000001  0.1495894300000000  1.9741156000000000
  6.1053131299999999  2.2891708000000000  0.0319661900000000
  4.0761587199999996  0.0517670800000000  4.1856167800000001
  4.2018907800000003  2.2782900100000001  6.1350108499999996
  6.3523827900000001  0.0774806400000000  6.0793156300000000
  6.2721439600000002  2.1256930199999999  4.3508194700000002
  4.1207234699999997  4.2387152199999996  0.0673850200000000
  4.1978181599999997  6.5456426199999997  2.0297558599999999
  6.3283697200000004  4.3336428700000003  2.0285193499999998
  6.3125450699999996  6.3916816499999998 -0.1537127800000000
  4.3235922100000002  4.0985000500000002  4.0546974300000000
  4.3018404200000004  6.2701878500000001  6.1820018900000004
  6.1510505300000000  4.1719062800000000  6.2690020799999999
  6.2567670399999997  6.4101630900000002  4.1477944000000004
Cartesian
  0.0000000000000000  0.0000000000000000  0.0000000000000000
  0.0000000000000000  0.0000000000000000  0.0000000000000000
  0.0000000000000000  0.0000000000000000  0.0000000000000000
  0.0000000000000000  0.0000000000000000  0.0000000000000000
  0.0000000000000000  0.0000000000000000  0.0000000000000000
  0.0000000000000000  0.0000000000000000  0.0000000000000000
  0.0000000000000000  0.0000000000000000  0.0000000000000000
  0.0000000000000000  0.0000000000000000  0.0000000000000000
  0.0000000000000000  0.0000000000000000  0.0000000000000000
  0.0000000000000000  0.0000000000000000  0.0000000000000000
  0.0000000000000000  0.0000000000000000  0.0000000000000000
  0.0000000000000000  0.0000000000000000  0.0000000000000000
  0.0000000000000000  0.0000000000000000  0.0000000000000000
  0.0000000000000000  0.0000000000000000  0.0000000000000000
  0.0000000000000000  0.0000000000000000  0.0000000000000000
  0.0000000000000000  0.0000000000000000  0.0000000000000000
  0.0000000000000000  0.0000000000000000  0.0000000000000000
  0.0000000000000000  0.0000000000000000  0.0000000000000000
  0.0000000000000000  0.0000000000000000  0.0000000000000000
  0.0000000000000000  0.0000000000000000  0.0000000000000000
  0.0000000000000000  0.0000000000000000  0.0000000000000000
  0.0000000000000000  0.0000000000000000  0.0000000000000000
  0.0000000000000000  0.0000000000000000  0.0000000000000000
  0.0000000000000000  0.0000000000000000  0.0000000000000000
  0.0000000000000000  0.0000000000000000  0.0000000000000000
  0.0000000000000000  0.0000000000000000  0.0000000000000000
  0.0000000000000000  0.0000000000000000  0.0000000000000000
  0.0000000000000000  0.0000000000000000  0.0000000000000000
  0.0000000000000000  0.0000000000000000  0.0000000000000000
  0.0000000000000000  0.0000000000000000  0.0000000000000000
  0.0000000000000000  0.0000000000000000  0.0000000000000000
  0.0000000000000000  0.0000000000000000  0.0000000000000000
