Au                                      
   1.0000000000000000     
     8.4284843658993438   -0.0443191443565794   -0.0860881700829550
    -0.1595232595681753    8.1889743997885329    0.0635922897607165
     0.0349107789893383   -0.2502219062703538    8.2472019014675819
   Au
    32
Direct
  0.0150781733599814  0.0115886905306866  0.9908778104486515
  0.0229881908215859  0.2504131379975973  0.2226662737725817
  0.2527595305723267  0.0042329383942459  0.2437298913290107
  0.2517985918747101  0.2626242264714094  0.9994347784909721
  0.0104978052804299  0.9915869940640860  0.4754764192762053
  0.0039090275336804  0.2540832628006910  0.7475044552333330
  0.2565772358074341  0.9766589736196138  0.7541682971192571
  0.2427879827642840  0.2393423983522567  0.5090024655828103
  0.9904208847671896  0.4902776725512297  0.9984691088603981
  0.9825205014831937  0.7350425650986381  0.2601258448384485
  0.2605828489916817  0.5111890415770901  0.2365061353261098
  0.2593817083436747  0.7477444070977555  0.9874010708577003
  0.0051906881823953  0.5051997939853123  0.5009442407885913
  0.0054479930418907  0.7368538486672165  0.7486090067950428
  0.2554718928295188  0.5045904938578047  0.7411572137912259
  0.2375330918971414  0.7642368927349423  0.5144204538671460
  0.4811256402668747  0.0245852194272231  0.9952372107635554
  0.4891694942843472  0.2408456275056992  0.2591676543423844
  0.7510632080643731  0.0071355456921722  0.2375033950801040
  0.7267326192823091  0.2570217477705299  0.9819009244700467
  0.5200848618094227  0.0269954248926680  0.4999401897054696
  0.4964579283123172  0.2181375034801221  0.7315155725930538
  0.7334914766828007  0.0169523527308257  0.7344952351650491
  0.7619672552998935  0.2517640796493481  0.5210355807589551
  0.4980729323062860  0.5158195104167334  0.0095396504753253
  0.4977218546539817  0.7452937870905956  0.2402978099589461
  0.7314699114850782  0.5161884926504570  0.2661693061696582
  0.7391867585640597  0.7688971119839536  0.0195336672216300
  0.4943737484862041  0.5059195535729870  0.4990320108163502
  0.5032163911533800  0.7540480393065963  0.7528856806277702
  0.7653340108035920  0.5225911023573389  0.7373702926567987
  0.7585277903981762  0.7403874394602994  0.5128936028708537

  0.00000000E+00  0.00000000E+00  0.00000000E+00
  0.00000000E+00  0.00000000E+00  0.00000000E+00
  0.00000000E+00  0.00000000E+00  0.00000000E+00
  0.00000000E+00  0.00000000E+00  0.00000000E+00
  0.00000000E+00  0.00000000E+00  0.00000000E+00
  0.00000000E+00  0.00000000E+00  0.00000000E+00
  0.00000000E+00  0.00000000E+00  0.00000000E+00
  0.00000000E+00  0.00000000E+00  0.00000000E+00
  0.00000000E+00  0.00000000E+00  0.00000000E+00
  0.00000000E+00  0.00000000E+00  0.00000000E+00
  0.00000000E+00  0.00000000E+00  0.00000000E+00
  0.00000000E+00  0.00000000E+00  0.00000000E+00
  0.00000000E+00  0.00000000E+00  0.00000000E+00
  0.00000000E+00  0.00000000E+00  0.00000000E+00
  0.00000000E+00  0.00000000E+00  0.00000000E+00
  0.00000000E+00  0.00000000E+00  0.00000000E+00
  0.00000000E+00  0.00000000E+00  0.00000000E+00
  0.00000000E+00  0.00000000E+00  0.00000000E+00
  0.00000000E+00  0.00000000E+00  0.00000000E+00
  0.00000000E+00  0.00000000E+00  0.00000000E+00
  0.00000000E+00  0.00000000E+00  0.00000000E+00
  0.00000000E+00  0.00000000E+00  0.00000000E+00
  0.00000000E+00  0.00000000E+00  0.00000000E+00
  0.00000000E+00  0.00000000E+00  0.00000000E+00
  0.00000000E+00  0.00000000E+00  0.00000000E+00
  0.00000000E+00  0.00000000E+00  0.00000000E+00
  0.00000000E+00  0.00000000E+00  0.00000000E+00
  0.00000000E+00  0.00000000E+00  0.00000000E+00
  0.00000000E+00  0.00000000E+00  0.00000000E+00
  0.00000000E+00  0.00000000E+00  0.00000000E+00
  0.00000000E+00  0.00000000E+00  0.00000000E+00
  0.00000000E+00  0.00000000E+00  0.00000000E+00
