Au
 1.0000000000000000
     8.4284843658993438   -0.0443191443565794   -0.0860881700829550
    -0.1595232595681753    8.1889743997885329    0.0635922897607165
     0.0349107789893383   -0.2502219062703538    8.2472019014675819
 Au 
  32
Cartesian
  0.1249190200000000  0.0965138100000000 -0.0757936400000000
  0.1615823400000000  1.9938919799999999  1.8503190500000000
  2.1382132999999999 -0.0375252200000000  1.9885991999999999
  2.0803660900000001  2.1396050000000000 -0.0096375000000000
  0.1064219100000000 -0.1883337600000000  3.9199112899999999
  0.0185109500000000  1.8934660999999999  6.1806413800000000
  2.1926092599999998 -0.3912197800000000  6.1962056399999996
  2.0259237099999998  1.8218450500000001  4.1921652600000003
 -0.1590015600000000  4.0156789100000001  0.0193769600000000
 -0.2555008700000000  5.9549302400000004  2.1935581800000001
  2.1230285400000000  4.1153861500000000  1.9605884300000000
  2.0664722100000001  6.1149167599999998 -0.0786848300000000
 -0.0193531300000000  4.0114909100000000  4.1630682500000002
 -0.0454924800000000  5.8465174800000002  6.2203188400000000
  2.0986213100000000  3.9353025700000002  6.1225681400000003
  1.8980892100000000  6.1190698200000000  4.2706801299999997
  4.0510717500000002  0.1811964100000000 -0.0791354800000000
  4.0935847000000001  1.8857496800000000  2.1106121899999999
  6.3374776500000003 -0.0342822300000000  1.8945345600000001
  6.0836217200000000  2.0770651299999998 -0.1954852100000000
  4.3966740299999998  0.0729191400000000  4.0800512299999996
  4.1751276600000002  1.5812786200000000  6.0040893300000002
  6.2051589500000004 -0.0774721300000000  5.9954635999999999
  6.4002566300000003  1.8975453499999999  4.2474995199999999
  4.1160477499999999  4.1995715699999998  0.0685993800000000
  4.0845381600000001  6.0210053600000002  1.9863315300000000
  6.0921308200000004  4.1280348399999998  2.1650067100000001
  6.1082489999999998  6.2588308899999996  0.1463587900000000
  4.1035370699999998  3.9961833100000002  4.1052305999999996
  4.1473471100000001  5.9641894799999999  6.2138308799999997
  6.3929824799999997  4.0610600100000003  6.0485882399999999
  6.2930361200000000  5.9010592700000002  4.2117197600000003
Cartesian
  0.0000000000000000  0.0000000000000000  0.0000000000000000
  0.0000000000000000  0.0000000000000000  0.0000000000000000
  0.0000000000000000  0.0000000000000000  0.0000000000000000
  0.0000000000000000  0.0000000000000000  0.0000000000000000
  0.0000000000000000  0.0000000000000000  0.0000000000000000
  0.0000000000000000  0.0000000000000000  0.0000000000000000
  0.0000000000000000  0.0000000000000000  0.0000000000000000
  0.0000000000000000  0.0000000000000000  0.0000000000000000
  0.0000000000000000  0.0000000000000000  0.0000000000000000
  0.0000000000000000  0.0000000000000000  0.0000000000000000
  0.0000000000000000  0.0000000000000000  0.0000000000000000
  0.0000000000000000  0.0000000000000000  0.0000000000000000
  0.0000000000000000  0.0000000000000000  0.0000000000000000
  0.0000000000000000  0.0000000000000000  0.0000000000000000
  0.0000000000000000  0.0000000000000000  0.0000000000000000
  0.0000000000000000  0.0000000000000000  0.0000000000000000
  0.0000000000000000  0.0000000000000000  0.0000000000000000
  0.0000000000000000  0.0000000000000000  0.0000000000000000
  0.0000000000000000  0.0000000000000000  0.0000000000000000
  0.0000000000000000  0.0000000000000000  0.0000000000000000
  0.0000000000000000  0.0000000000000000  0.0000000000000000
  0.0000000000000000  0.0000000000000000  0.0000000000000000
  0.0000000000000000  0.0000000000000000  0.0000000000000000
  0.0000000000000000  0.0000000000000000  0.0000000000000000
  0.0000000000000000  0.0000000000000000  0.0000000000000000
  0.0000000000000000  0.0000000000000000  0.0000000000000000
  0.0000000000000000  0.0000000000000000  0.0000000000000000
  0.0000000000000000  0.0000000000000000  0.0000000000000000
  0.0000000000000000  0.0000000000000000  0.0000000000000000
  0.0000000000000000  0.0000000000000000  0.0000000000000000
  0.0000000000000000  0.0000000000000000  0.0000000000000000
  0.0000000000000000  0.0000000000000000  0.0000000000000000
