Pt
 1.0000000000000000
    19.9354000000000013    0.0000000000000000    0.0000000000000000
     0.0000000000000000   19.9354000000000013    0.0000000000000000
     0.0000000000000000    0.0000000000000000   19.9354000000000013
 Pt 
  38
Direct
  0.3023647586705057  0.3989626518655256  0.4985199153265045
  0.4981624446963692  0.7015614499834465  0.4035107828285361
  0.4036074289956559  0.6030948172597490  0.5901672803154188
  0.5027462303239463  0.5928469712170310  0.6907259944621126
  0.4981645434754256  0.7018863514150706  0.5993801714537957
  0.6030790719022442  0.2947943372091856  0.4908102415803043
  0.6027277651815363  0.5017799422133491  0.2936162439680167
  0.5901181355779166  0.4102984635372252  0.3994970640167742
  0.5969478470459584  0.5074325150235259  0.4991557781634679
  0.6957344427500827  0.3881842395938882  0.4936800304985102
  0.6955592017215606  0.4990110717617905  0.3953347783340189
  0.5940647747223531  0.4065228091736308  0.5946390235460537
  0.5986919505001154  0.4969598207209285  0.6929846654694664
  0.6976894674799602  0.4891882570703371  0.5943476870291040
  0.5924297260150285  0.5949843930896797  0.4014313873812413
  0.6092402469978029  0.6933396305065360  0.5036471979493764
  0.4970640077450164  0.6006166277074951  0.4998014115593366
  0.4016529129086951  0.6969651283646177  0.5059290724038644
  0.4050070457577977  0.6033962238028833  0.4100563645575207
  0.4898522332132788  0.5900607993820038  0.3024562742658787
  0.3070899495370045  0.5111735987238780  0.3982826389237236
  0.3019450334580696  0.4978451046881427  0.6100629387922990
  0.3014112071992535  0.5975043470409421  0.4863222568897538
  0.3919941666583063  0.2996319612347884  0.4935872944611093
  0.4938135166588079  0.3102621873651896  0.4036840218907069
  0.4860214879059361  0.2987225006771873  0.6018884747735184
  0.4001743722222779  0.5026531055308646  0.3051341166969310
  0.6984861833722924  0.6009037210188909  0.4882399951844457
  0.5008827939243756  0.4050322862846996  0.3133693294340720
  0.4019165594871434  0.4997769821523521  0.5057759503195320
  0.4895645780872217  0.4093133506225107  0.4979437849253087
  0.5053666868986827  0.5053506967505040  0.4092401311235290
  0.4034401607191227  0.3977167656530594  0.6038550061699288
  0.4046519758820991  0.5010337936535008  0.7047708578709231
  0.4950879470690329  0.3979785963662630  0.6984136806886242
  0.4903338994953700  0.5002441480983576  0.6021858929341773
  0.3981080760857569  0.4084700327056391  0.4044503892573011
  0.5979679309168614  0.6096337600449452  0.5973543174453484
