Pt
 1.0000000000000000
     8.0922351417075369   -0.1227619824057400   -0.0275937270987063
     0.1194702060918608    7.9757702342082899   -0.0226719218914768
     0.0484828494475735   -0.1500532415864627    7.9866490681575444
 Pt 
  32
Direct
  0.1259178670921162  0.1321677125212249  0.1290008150507013
  0.6239754346804164  0.8825056451982941  0.8595511419536148
  0.6224425589321454  0.6269187088687573  0.6252760287184641
  0.8869631539694368  0.8785503118085939  0.1332169892760474
  0.8712759586916865  0.6191649174513800  0.3723980513349798
  0.6270422994420373  0.8767668877660775  0.3664402679410283
  0.6174708815678895  0.6251202116222643  0.1205876458811583
  0.8668445675438080  0.3860197632989484  0.6367651200090968
  0.8679387201399331  0.1237936348333307  0.8795849966426709
  0.6188989144845417  0.3626252188488015  0.8696633117483283
  0.6127875529754880  0.1094492648567020  0.6263467087385393
  0.8732956831931672  0.3766804534334798  0.1145772582177451
  0.8765946593180618  0.1343503804271652  0.3816348545084736
  0.6237048677055311  0.3802898090993966  0.3653370177977213
  0.6099527729452650  0.1187351250335639  0.1182741154367762
  0.3893477404198736  0.8713720250568625  0.6182536207172122
  0.3865802552154316  0.6165437157545500  0.8706814750074680
  0.1292961712486932  0.9007700666865683  0.8672890373354520
  0.1366248064370501  0.6352608484703220  0.6374164469374114
  0.3622639312294269  0.8941402122081886  0.1245473352614371
  0.3714134062886894  0.6380102741155231  0.3665628731512569
  0.1247123148904683  0.8675199591564966  0.3687245022543086
  0.1203905812929574  0.6289599551848082  0.1204807870748539
  0.3590063376659449  0.3659634322301863  0.6274023065864943
  0.3811226113547389  0.1179460474602155  0.8662465794932336
  0.1336765672089580  0.3818597611449087  0.8732663473596425
  0.1230020080340994  0.1106440966849652  0.6279240060959635
  0.3706183065507799  0.3725122047735877  0.1270854696828622
  0.3645966348387499  0.1394928872236301  0.3737050365448112
  0.1218757730745504  0.3999875930420375  0.3711233195542107
  0.8760987984760387  0.6323205274144482  0.8777611490048611
  0.8619780256049231  0.8851354573420994  0.6314035718010073
