Pt                                      
   1.0000000000000000     
    11.2223935179574195    0.0000000000000000    0.0000000000000000
     5.6111967589787097    9.7188778778169418    0.0000000000000000
     0.0000000000000000    0.0000000000000000   14.5815229686188559
   Pt
    48
Direct
     0.5000000000910063    0.0000000000000000    0.3417648551686955
     0.5833333334324067    0.3333333334082056    0.4999999997044569
     0.5833333334217485    0.8333333335205140    0.4999999997044569
     0.0833333333467223    0.0833333333520514    0.4999999997044569
     0.0833333333360713    0.5833333334643598    0.4999999997044569
     0.5833333334377286    0.0833333333520514    0.4999999997044569
     0.5833333334270776    0.5833333334643598    0.4999999997044569
     0.1666666666934518    0.1666666667041028    0.6582351449260269
     0.1666666666828007    0.6666666668164112    0.6582351449260269
     0.6666666667844581    0.1666666667041028    0.6582351449260269
     0.0833333333307493    0.8333333335205140    0.4999999997044569
     0.6666666667737999    0.6666666668164112    0.6582351449260269
     0.1666666666774717    0.9166666668725654    0.6582351449260269
     0.6666666667791290    0.4166666667602570    0.6582351449260269
     0.6666666667684780    0.9166666668725654    0.6582351449260269
     0.4166666667389549    0.1666666667041028    0.6582351449260269
     0.4166666667282968    0.6666666668164112    0.6582351449260269
     0.9166666668299541    0.1666666667041028    0.6582351449260269
     0.9166666668193031    0.6666666668164112    0.6582351449260269
     0.4166666667336258    0.4166666667602570    0.6582351449260269
     0.4166666667229748    0.9166666668725654    0.6582351449260269
     0.1666666666881227    0.4166666667602570    0.6582351449260269
     0.0833333333414004    0.3333333334082056    0.4999999997044569
     0.8333333334725808    0.5833333334643598    0.4999999997044569
     0.8333333334832318    0.0833333333520514    0.4999999997044569
     0.5000000000803553    0.5000000001123084    0.3417648551686955
     0.0000000001820126    0.0000000000000000    0.3417648551686955
     0.0000000001713545    0.5000000001123084    0.3417648551686955
     0.5000000000856772    0.2500000000561542    0.3417648551686955
     0.5000000000750262    0.7500000001684626    0.3417648551686955
     0.0000000001766836    0.2500000000561542    0.3417648551686955
     0.0000000001660325    0.7500000001684626    0.3417648551686955
     0.2500000000455032    0.0000000000000000    0.3417648551686955
     0.2500000000348521    0.5000000001123084    0.3417648551686955
     0.7500000001365095    0.0000000000000000    0.3417648551686955
     0.7500000001258513    0.5000000001123084    0.3417648551686955
     0.2500000000401741    0.2500000000561542    0.3417648551686955
     0.2500000000295231    0.7500000001684626    0.3417648551686955
     0.7500000001311804    0.2500000000561542    0.3417648551686955
     0.7500000001205294    0.7500000001684626    0.3417648551686955
     0.3333333333869035    0.3333333334082056    0.4999999997044569
     0.3333333333762454    0.8333333335205140    0.4999999997044569
     0.8333333334779027    0.3333333334082056    0.4999999997044569
     0.8333333334672517    0.8333333335205140    0.4999999997044569
     0.3333333333922255    0.0833333333520514    0.4999999997044569
     0.3333333333815744    0.5833333334643598    0.4999999997044569
     0.9166666668246322    0.4166666667602570    0.6582351449260269
     0.9166666668139811    0.9166666668725654    0.6582351449260269

  0.00000000E+00  0.00000000E+00  0.00000000E+00
  0.00000000E+00  0.00000000E+00  0.00000000E+00
  0.00000000E+00  0.00000000E+00  0.00000000E+00
  0.00000000E+00  0.00000000E+00  0.00000000E+00
  0.00000000E+00  0.00000000E+00  0.00000000E+00
  0.00000000E+00  0.00000000E+00  0.00000000E+00
  0.00000000E+00  0.00000000E+00  0.00000000E+00
  0.00000000E+00  0.00000000E+00  0.00000000E+00
  0.00000000E+00  0.00000000E+00  0.00000000E+00
  0.00000000E+00  0.00000000E+00  0.00000000E+00
  0.00000000E+00  0.00000000E+00  0.00000000E+00
  0.00000000E+00  0.00000000E+00  0.00000000E+00
  0.00000000E+00  0.00000000E+00  0.00000000E+00
  0.00000000E+00  0.00000000E+00  0.00000000E+00
  0.00000000E+00  0.00000000E+00  0.00000000E+00
  0.00000000E+00  0.00000000E+00  0.00000000E+00
  0.00000000E+00  0.00000000E+00  0.00000000E+00
  0.00000000E+00  0.00000000E+00  0.00000000E+00
  0.00000000E+00  0.00000000E+00  0.00000000E+00
  0.00000000E+00  0.00000000E+00  0.00000000E+00
  0.00000000E+00  0.00000000E+00  0.00000000E+00
  0.00000000E+00  0.00000000E+00  0.00000000E+00
  0.00000000E+00  0.00000000E+00  0.00000000E+00
  0.00000000E+00  0.00000000E+00  0.00000000E+00
  0.00000000E+00  0.00000000E+00  0.00000000E+00
  0.00000000E+00  0.00000000E+00  0.00000000E+00
  0.00000000E+00  0.00000000E+00  0.00000000E+00
  0.00000000E+00  0.00000000E+00  0.00000000E+00
  0.00000000E+00  0.00000000E+00  0.00000000E+00
  0.00000000E+00  0.00000000E+00  0.00000000E+00
  0.00000000E+00  0.00000000E+00  0.00000000E+00
  0.00000000E+00  0.00000000E+00  0.00000000E+00
  0.00000000E+00  0.00000000E+00  0.00000000E+00
  0.00000000E+00  0.00000000E+00  0.00000000E+00
  0.00000000E+00  0.00000000E+00  0.00000000E+00
  0.00000000E+00  0.00000000E+00  0.00000000E+00
  0.00000000E+00  0.00000000E+00  0.00000000E+00
  0.00000000E+00  0.00000000E+00  0.00000000E+00
  0.00000000E+00  0.00000000E+00  0.00000000E+00
  0.00000000E+00  0.00000000E+00  0.00000000E+00
  0.00000000E+00  0.00000000E+00  0.00000000E+00
  0.00000000E+00  0.00000000E+00  0.00000000E+00
  0.00000000E+00  0.00000000E+00  0.00000000E+00
  0.00000000E+00  0.00000000E+00  0.00000000E+00
  0.00000000E+00  0.00000000E+00  0.00000000E+00
  0.00000000E+00  0.00000000E+00  0.00000000E+00
  0.00000000E+00  0.00000000E+00  0.00000000E+00
  0.00000000E+00  0.00000000E+00  0.00000000E+00
