Pt                                      
   1.0000000000000000     
    21.5463013567337569    0.0000000000000000    0.0000000000000000
     0.0000000000000000   21.5463013567337569    0.0000000000000000
     0.0000000000000000    0.0000000000000000   21.5463013567337569
   Pt
    55
Direct
     0.5000000000757936    0.5000000000757936    0.5000000000757936
     0.5000000000757936    0.5000000000757936    0.2860020892243450
     0.5000000000757936    0.6257353485599141    0.2965558556928593
     0.6070006246697641    0.4338697221069673    0.6731301672016861
     0.6070006246697641    0.5661302775805077    0.6731301672016861
     0.6070006246697641    0.4338697221069673    0.3268698324857888
     0.6070006246697641    0.5661302775805077    0.3268698324857888
     0.3929993754818232    0.4338697221069673    0.6731301672016861
     0.3929993754818232    0.5661302775805077    0.6731301672016861
     0.3929993754818232    0.4338697221069673    0.3268698324857888
     0.3929993754818232    0.5661302775805077    0.3268698324857888
     0.6731301672016861    0.6070006246697641    0.4338697221069673
     0.5000000000757936    0.3742646515916800    0.2965558556928593
     0.6731301672016861    0.6070006246697641    0.5661302775805077
     0.3268698324857888    0.6070006246697641    0.5661302775805077
     0.6731301672016861    0.3929993754818232    0.4338697221069673
     0.6731301672016861    0.3929993754818232    0.5661302775805077
     0.3268698324857888    0.3929993754818232    0.4338697221069673
     0.3268698324857888    0.3929993754818232    0.5661302775805077
     0.4338697221069673    0.6731301672016861    0.6070006246697641
     0.5661302775805077    0.6731301672016861    0.6070006246697641
     0.4338697221069673    0.3268698324857888    0.6070006246697641
     0.5661302775805077    0.3268698324857888    0.6070006246697641
     0.4338697221069673    0.6731301672016861    0.3929993754818232
     0.5661302775805077    0.6731301672016861    0.3929993754818232
     0.3268698324857888    0.6070006246697641    0.4338697221069673
     0.4338697221069673    0.3268698324857888    0.3929993754818232
     0.5000000000757936    0.6257353485599141    0.7034441444587277
     0.5000000000757936    0.3742646515916800    0.7034441444587277
     0.6032556466763002    0.5000000000757936    0.4361826137752469
     0.6032556466763002    0.5000000000757936    0.5638173859122281
     0.3967443534752872    0.5000000000757936    0.4361826137752469
     0.3967443534752872    0.5000000000757936    0.5638173859122281
     0.4361826137752469    0.6032556466763002    0.5000000000757936
     0.5638173859122281    0.6032556466763002    0.5000000000757936
     0.4361826137752469    0.3967443534752872    0.5000000000757936
     0.5638173859122281    0.3967443534752872    0.5000000000757936
     0.5000000000757936    0.4361826137752469    0.6032556466763002
     0.5000000000757936    0.5638173859122281    0.6032556466763002
     0.5000000000757936    0.4361826137752469    0.3967443534752872
     0.5000000000757936    0.5000000000757936    0.7139979109272422
     0.5000000000757936    0.5638173859122281    0.3967443534752872
     0.7139979109272422    0.5000000000757936    0.5000000000757936
     0.7034441444587277    0.5000000000757936    0.6257353485599141
     0.2965558556928593    0.5000000000757936    0.3742646515916800
     0.2860020892243450    0.5000000000757936    0.5000000000757936
     0.2965558556928593    0.5000000000757936    0.6257353485599141
     0.3742646515916800    0.7034441444587277    0.5000000000757936
     0.5000000000757936    0.7139979109272422    0.5000000000757936
     0.6257353485599141    0.7034441444587277    0.5000000000757936
     0.3742646515916800    0.2965558556928593    0.5000000000757936
     0.5000000000757936    0.2860020892243450    0.5000000000757936
     0.6257353485599141    0.2965558556928593    0.5000000000757936
     0.7034441444587277    0.5000000000757936    0.3742646515916800
     0.5661302775805077    0.3268698324857888    0.3929993754818232

  0.00000000E+00  0.00000000E+00  0.00000000E+00
  0.00000000E+00  0.00000000E+00  0.00000000E+00
  0.00000000E+00  0.00000000E+00  0.00000000E+00
  0.00000000E+00  0.00000000E+00  0.00000000E+00
  0.00000000E+00  0.00000000E+00  0.00000000E+00
  0.00000000E+00  0.00000000E+00  0.00000000E+00
  0.00000000E+00  0.00000000E+00  0.00000000E+00
  0.00000000E+00  0.00000000E+00  0.00000000E+00
  0.00000000E+00  0.00000000E+00  0.00000000E+00
  0.00000000E+00  0.00000000E+00  0.00000000E+00
  0.00000000E+00  0.00000000E+00  0.00000000E+00
  0.00000000E+00  0.00000000E+00  0.00000000E+00
  0.00000000E+00  0.00000000E+00  0.00000000E+00
  0.00000000E+00  0.00000000E+00  0.00000000E+00
  0.00000000E+00  0.00000000E+00  0.00000000E+00
  0.00000000E+00  0.00000000E+00  0.00000000E+00
  0.00000000E+00  0.00000000E+00  0.00000000E+00
  0.00000000E+00  0.00000000E+00  0.00000000E+00
  0.00000000E+00  0.00000000E+00  0.00000000E+00
  0.00000000E+00  0.00000000E+00  0.00000000E+00
  0.00000000E+00  0.00000000E+00  0.00000000E+00
  0.00000000E+00  0.00000000E+00  0.00000000E+00
  0.00000000E+00  0.00000000E+00  0.00000000E+00
  0.00000000E+00  0.00000000E+00  0.00000000E+00
  0.00000000E+00  0.00000000E+00  0.00000000E+00
  0.00000000E+00  0.00000000E+00  0.00000000E+00
  0.00000000E+00  0.00000000E+00  0.00000000E+00
  0.00000000E+00  0.00000000E+00  0.00000000E+00
  0.00000000E+00  0.00000000E+00  0.00000000E+00
  0.00000000E+00  0.00000000E+00  0.00000000E+00
  0.00000000E+00  0.00000000E+00  0.00000000E+00
  0.00000000E+00  0.00000000E+00  0.00000000E+00
  0.00000000E+00  0.00000000E+00  0.00000000E+00
  0.00000000E+00  0.00000000E+00  0.00000000E+00
  0.00000000E+00  0.00000000E+00  0.00000000E+00
  0.00000000E+00  0.00000000E+00  0.00000000E+00
  0.00000000E+00  0.00000000E+00  0.00000000E+00
  0.00000000E+00  0.00000000E+00  0.00000000E+00
  0.00000000E+00  0.00000000E+00  0.00000000E+00
  0.00000000E+00  0.00000000E+00  0.00000000E+00
  0.00000000E+00  0.00000000E+00  0.00000000E+00
  0.00000000E+00  0.00000000E+00  0.00000000E+00
  0.00000000E+00  0.00000000E+00  0.00000000E+00
  0.00000000E+00  0.00000000E+00  0.00000000E+00
  0.00000000E+00  0.00000000E+00  0.00000000E+00
  0.00000000E+00  0.00000000E+00  0.00000000E+00
  0.00000000E+00  0.00000000E+00  0.00000000E+00
  0.00000000E+00  0.00000000E+00  0.00000000E+00
  0.00000000E+00  0.00000000E+00  0.00000000E+00
  0.00000000E+00  0.00000000E+00  0.00000000E+00
  0.00000000E+00  0.00000000E+00  0.00000000E+00
  0.00000000E+00  0.00000000E+00  0.00000000E+00
  0.00000000E+00  0.00000000E+00  0.00000000E+00
  0.00000000E+00  0.00000000E+00  0.00000000E+00
  0.00000000E+00  0.00000000E+00  0.00000000E+00
