Pt
 1.0000000000000000
    19.9354000000000013    0.0000000000000000    0.0000000000000000
     0.0000000000000000   19.9354000000000013    0.0000000000000000
     0.0000000000000000    0.0000000000000000   19.9354000000000013
 Pt 
  38
Direct
  0.2987206737762974  0.4022002819105711  0.4984426964094023
  0.5008141487003019  0.6963027819858141  0.3998614379445609
  0.4025249435677237  0.6011515249255093  0.6025711452993168
  0.5029809700332072  0.5980217096220792  0.6973866749601211
  0.5021046184174884  0.7025845205012189  0.6004047418160658
  0.5979940176770969  0.2994759131996348  0.5002632186963892
  0.5976843930896796  0.5012452004976072  0.2985151880574254
  0.5993740732566187  0.3989740963311496  0.3985008462333336
  0.6009651113095298  0.5003482322902976  0.4981693765863739
  0.6987525296708367  0.4031766014225949  0.4983140473730148
  0.7008871404636977  0.4982115177021780  0.3991236970414438
  0.5998119275259086  0.3969638888610210  0.5960049223993498
  0.6013628189050633  0.5016123473820440  0.6964230489481023
  0.6970909838779256  0.5001186005798729  0.6011156059070798
  0.6011910400593917  0.5985947395086127  0.3991289118853897
  0.5953848495640920  0.6986028005457627  0.5027940703472215
  0.5006175542000662  0.6004662610231045  0.4966304292865956
  0.4020363599426146  0.6973280781925619  0.4977258108691072
  0.4009537295464349  0.5980883945142810  0.3984080459885429
  0.4970563831174694  0.5968782276753914  0.3029682474392287
  0.3005721540576061  0.4987851645815985  0.4015636154779939
  0.3006850216198320  0.4993997702579331  0.5976391043069113
  0.3018257245904271  0.5970191839642044  0.5001007248412371
  0.4011539026054154  0.2978615402750885  0.5007120805200799
  0.4994173018850888  0.3008503370887968  0.4017663277385957
  0.4974651720055780  0.3004103629724008  0.5989047613792550
  0.3970590998926532  0.5029860203457166  0.2980741745839059
  0.7012893345505984  0.5981936720607561  0.5023155386899686
  0.4964171017386157  0.4041961977186311  0.3004838673916751
  0.3996577766184776  0.5004877444144586  0.5018914634268687
  0.5015236087562828  0.4005912181345747  0.4979335644130541
  0.5027761549805873  0.4994396079336256  0.4003311315549223
  0.4020070688323284  0.3993794872437974  0.5999228051606689
  0.3998317736288211  0.5001059587467519  0.6973960291742327
  0.4983194066835879  0.4024188839953048  0.7018608726185579
  0.5022037832197999  0.4993461074269891  0.6001512254582300
  0.4025584538057926  0.4006820951673907  0.4025757867913359
  0.5996416650782025  0.6011631665278849  0.5999127436620283
