Pt
 1.0000000000000000
     7.7503237498545010    0.0098517005355393    0.0609186935718884
     0.0065747971684372    7.9879427059149606    0.0014949731124617
     0.1155654278459959    0.0148136623316959   15.9913730563536909
 Pt 
  32
Direct
  0.1309467566961741  0.1136354820582024  0.3159793724314786
  0.3915253715056254  0.8618829296220899  0.5578869070606237
  0.3806875475986279  0.3694051852090426  0.5585401759840080
  0.8804877481727952  0.6124232568319637  0.6907718568909190
  0.8854533511408215  0.1318372463533055  0.6837585563765420
  0.3463466274888155  0.6190482775880598  0.6930280268207960
  0.3850461193539306  0.1085255150227378  0.6784996568137769
  0.6153543093993988  0.8761862376599000  0.6726943856923313
  0.6363192657301684  0.3753230749349707  0.6801744318890718
  0.1288123483746968  0.8566880191558540  0.6924408851850982
  0.1324023301890029  0.3607478961894972  0.6881637790471938
  0.6205283168272961  0.6309032195285226  0.5621864526944294
  0.6186334956692996  0.1053322134277842  0.5652553651873945
  0.1310501562111792  0.6219705373909270  0.5613301743901573
  0.1227711679587781  0.1377043039631273  0.5582667282632561
  0.8727183896199859  0.8718390363695175  0.3110580199962288
  0.8917482395950398  0.3727621333978360  0.3145608944995154
  0.3817912207795256  0.8628949753624003  0.3195241462268115
  0.3774672134734648  0.3807537718070159  0.3083398077489387
  0.8652159509536618  0.6193989494837493  0.4377412436797418
  0.8759257465094793  0.1203468540247885  0.4366764222144900
  0.3794679201542814  0.6305086613117041  0.4388741555727420
  0.3702562373234908  0.1448489722819112  0.4328385976629041
  0.6118911226586505  0.8843456613594500  0.4293284532240791
  0.6176137094597017  0.3839671628049332  0.4437881127589274
  0.1214274885127444  0.8871771564041357  0.4391113586866948
  0.1200505709077759  0.3986641789583959  0.4353810125805938
  0.6450791366497504  0.6222040911388259  0.3129335620977097
  0.6122301746572650  0.1200197998721759  0.3108331081830325
  0.1261420314386420  0.6134551350995294  0.3154800313599785
  0.8717812527084922  0.3893721864720555  0.5508303866724698
  0.8862285985100822  0.8654793992354154  0.5629976445058520
