Pt
 1.0000000000000000
     7.9353546739080647   -0.0096002396101975   -0.0029177644135213
    -0.0027237063296239    7.9304820134573788    0.0012196821239355
     0.0056334105436559   -0.0148152997941742   15.9511476284099452
 Pt 
  32
Direct
  0.1257637924411915  0.1259436502200662  0.3147037388682041
  0.3771107470973208  0.8727410505396758  0.5622208321667719
  0.3749178474126168  0.3778251755409570  0.5620559695261433
  0.8737362066695218  0.6274021404690805  0.6873079448972683
  0.8763065998832696  0.1235274413994043  0.6864632506126392
  0.3778151609491209  0.6240130420647811  0.6875595044049038
  0.3749498213896116  0.1240440945074004  0.6871418318114864
  0.6246769088350502  0.8757700203168318  0.6865454081505316
  0.6236656626647697  0.3743948194304274  0.6862379950212436
  0.1252966004482079  0.8727387618775579  0.6869693001009178
  0.1247842916384477  0.3749137866594270  0.6878627325835641
  0.6259279410068516  0.6253201995134701  0.5623744910006091
  0.6259450043641075  0.1257661549161314  0.5619871048877753
  0.1229782883823865  0.6243437106831190  0.5622071013146474
  0.1261034763186361  0.1255668961056866  0.5620586541728840
  0.8749754323429667  0.8751815018833347  0.3135579743515122
  0.8759495454724024  0.3751531711959377  0.3132768828428993
  0.3751043952629618  0.8768182396455483  0.3133393567131849
  0.3742242503148845  0.3745743382182021  0.3143702480468925
  0.8766145135134563  0.6242570633419753  0.4378725589004688
  0.8750815942403083  0.1229887545641107  0.4383625735050786
  0.3745656987506455  0.6253626249653746  0.4383447388072782
  0.3748826373028415  0.1258560559697394  0.4368946358708737
  0.6246637875048012  0.8762205752684180  0.4370623640132576
  0.6231464870889782  0.3754451831846229  0.4375845772020965
  0.1263530101156769  0.8742390667571415  0.4364977622145387
  0.1236265118273370  0.3742301248628761  0.4373877054975708
  0.6263201441225493  0.6251959310566541  0.3133141238957433
  0.6272666029572582  0.1271386282393028  0.3126008142874185
  0.1253700986744362  0.6234828127381818  0.3128292506480030
  0.8754472919603062  0.3752442140494268  0.5623582728504023
  0.8754962042987612  0.8747621497041373  0.5618813698363225
