Pt
 1.0000000000000000
     7.9889081514981974    0.0444937972006345    0.0445103633708068
     0.0815168448419153    8.0345171656374248    0.0121242099824248
     0.0235162682148039    0.0111509072366516    7.8550513961087338
 Pt 
  32
Direct
  0.1258913476005523  0.1275874279457989  0.1244513949443794
  0.6120904414569519  0.8720416542366385  0.8735900772469724
  0.6343093818760900  0.6280609738867252  0.6245582617351603
  0.8767380862456481  0.8687301476329863  0.1216806758190923
  0.8671641107915422  0.6089887860573771  0.3611590133977748
  0.6308943877219998  0.8772503185281249  0.3695690579342357
  0.6180183393494646  0.6189808608605000  0.1290070419800892
  0.8724779475749562  0.3656368137581496  0.6237866087598656
  0.8806899556466048  0.1294344001885400  0.8710923131069477
  0.6316231763315688  0.3627759247647617  0.8794783666013857
  0.6219536406977262  0.1267396478556246  0.6267135428022480
  0.8783606127602795  0.3794177715736027  0.1249174027948309
  0.8767993695102826  0.1301903337400055  0.3775554171402400
  0.6213154995446869  0.3783033711259418  0.3690332049609208
  0.6224200270974618  0.1156957123934530  0.1307483143677808
  0.3854613100171080  0.8754406054984275  0.6210131716915405
  0.3786956260058271  0.6324672987827094  0.8779487295472591
  0.1219160956948720  0.8766821305279033  0.8750528743130280
  0.1242034332488428  0.6154559852719524  0.6117080092988486
  0.3729592467427702  0.8741754015648306  0.1250837470982900
  0.3755248072365723  0.6176035273848196  0.3840569166762824
  0.1360987573072074  0.8705294305965142  0.3787410372285139
  0.1226281368426739  0.6250054314650983  0.1275269173254105
  0.3754424899876070  0.3877284432670523  0.6366006643521983
  0.3755853495547525  0.1315080937868324  0.8769828738846547
  0.1197614513980014  0.3798378753563333  0.8537438575440137
  0.1309466056949148  0.1240400903095497  0.6217533081090472
  0.3663940534204562  0.3752860767769541  0.1183250272311984
  0.3779647227541229  0.1255849107831125  0.3547471753527068
  0.1240456664059035  0.3812890292666876  0.3738822747249942
  0.8772464052455721  0.6300160960691858  0.8835924867065834
  0.8684261496778660  0.8732989947599367  0.6289720406635042
