Pt
 1.0000000000000000
     7.8685534901323040   -0.0501118692516136   -0.0926349609685455
    -0.0638374878226275    7.8464518322594445    0.0142753064203652
    -0.0140467862196437   -0.0340663336684160    7.8619773866058758
 Pt 
  32
Direct
  0.1173788801571658  0.1188557868682973  0.1254808220238865
  0.6288140448945343  0.8817558539667009  0.8802881182655958
  0.6328060189810679  0.6177944727080438  0.6254620782608422
  0.8780865257141203  0.8681814911494949  0.1326660168215225
  0.8800991961447114  0.6323282616161398  0.3835200238717807
  0.6339829529345261  0.8878325126334192  0.3802186279528995
  0.6299650235430765  0.6340913054350832  0.0905181193851177
  0.8925240662289685  0.3738187848170468  0.6318871869058326
  0.8699554718004554  0.1305208254346484  0.8784815329237373
  0.6247007244244275  0.3615573153023510  0.8619277431787556
  0.6278905534642785  0.1156264119553800  0.6159178392832078
  0.8681315299512798  0.3681522227276730  0.1154717407544910
  0.8643761720814280  0.1243943056620850  0.3803066097883342
  0.6162778003444696  0.3705613539081876  0.3915123920796404
  0.6235599361880042  0.1120231310556578  0.1281223267755034
  0.3610960804851588  0.8688166703842666  0.5981126663045325
  0.3573749610827829  0.6226080476936755  0.8645652792757356
  0.1181824222344580  0.8747337652521691  0.8548513994692515
  0.1220627822750481  0.6317280266459935  0.6089956196101530
  0.3747661555322659  0.8801007625771951  0.1160919912690702
  0.3916078602316083  0.6416835316974268  0.3778352332669411
  0.1289919594523806  0.8671506428489482  0.3885596363065426
  0.1042298017060512  0.6194445474363464  0.1420350680212024
  0.3823202243760582  0.3584046660281776  0.6354971322029555
  0.3722459867506858  0.1121532378605566  0.8679221772173892
  0.1180127579087645  0.3951748958538392  0.8972106020696611
  0.1041714608793300  0.1084879774141736  0.6183686432849052
  0.3749852627515782  0.3660590198495873  0.1227497680350247
  0.3910160664368735  0.1244246973753376  0.3737719129512516
  0.1318951146571371  0.3660885612318345  0.3748986148740480
  0.8722814022879247  0.6084549169281919  0.8744511953169579
  0.8730583591226700  0.8962767870124060  0.6265461828522384
