Pt
 1.0000000000000000
     7.9452771705153715   -0.0766284991181934    0.0501183671767114
    -0.0212307438389615    7.8643019281081648   -0.0257825991908495
     0.0409511902731153   -0.0217358742690202    7.9788958743407550
 Pt 
  32
Direct
  0.1266443940518536  0.1221911895992910  0.1187114948159903
  0.6252294166460465  0.8811293434460236  0.8660678903514539
  0.6266645676244850  0.6181473795528811  0.6235449026513478
  0.8658658359735050  0.8589852588077633  0.1255112895966124
  0.8810709717092726  0.6262126794010872  0.3813670312252036
  0.6347514578388179  0.8607734486315960  0.3633150483280105
  0.6185658336035967  0.6173532729177693  0.1213354964985395
  0.8693435387037639  0.3744368401741690  0.6237887365221785
  0.8775076894610183  0.1197484385543873  0.8782862270393006
  0.6222665341363817  0.3807736652341697  0.8780069701977854
  0.6176639762449605  0.1405964020063181  0.6295974919139286
  0.8689293524848749  0.3786760195277358  0.1237782454176733
  0.8782453712630133  0.1227051664217026  0.3737826287127358
  0.6297401243649901  0.3699623648108945  0.3764181851585998
  0.6308918593410190  0.1149820844602995  0.1240742469551669
  0.3818305934210217  0.8678100870998173  0.6272241802105970
  0.3866816820557256  0.6283546639720267  0.8736638905574229
  0.1209269132509868  0.8634769912148060  0.8812541324605411
  0.1187096048954088  0.6113026329244000  0.6182344332963260
  0.3767407846173857  0.8808949461152277  0.1328891710143597
  0.3703919483676566  0.6305494421913524  0.3783319135142692
  0.1258357800413577  0.8676522164480186  0.3769649050288130
  0.1171080799147036  0.6152159706374353  0.1347743206546205
  0.3768131271081871  0.3749571930512410  0.6108289792368595
  0.3796605003577229  0.1174610012758435  0.8708747695157945
  0.1190341186475752  0.3664162553721985  0.8768935411583405
  0.1316673583439809  0.1076543403031826  0.6266121985342504
  0.3695680957453404  0.3835708826022930  0.1269064718671636
  0.3796764262338434  0.1314504395946315  0.3744855514493197
  0.1304506026853800  0.3690293784606591  0.3753273764332867
  0.8678109430006917  0.6272234751843633  0.8750177209900417
  0.8698439092299618  0.8728313726879585  0.6330591418366317
