Au                                      
   1.0000000000000000     
     8.3156841465727975   -0.0960023961019751   -0.0291776441352131
    -0.0272370632962394    8.2669575420659402    0.0121968212393546
     0.0563341054365590   -0.1481529979417419    8.3121900858207223
   Au
    32
Direct
  0.0071620139773501  0.0095360283429429  0.0240938825260670
  0.0035646070455897  0.2352813450521865  0.2381430660140964
  0.2717936001055179  0.0204669353924771  0.2337704233574414
  0.2626197915205495  0.2519675787340603  0.9974542946590930
  0.9869237445891414  0.9923384455740916  0.4917454774350460
  0.0130510346551560  0.2424073359868473  0.7247494507827810
  0.2323532399846968  0.0040106268501461  0.7454937506568484
  0.2469181544467531  0.2614308798812388  0.4855084992842933
  0.9990167783107538  0.5079014111686533  0.9823010218374648
  0.9958012446046069  0.7536069040611224  0.2601239961059179
  0.2506551127528169  0.4808913961215922  0.2605113173458804
  0.2653790633669786  0.7430522543510421  0.0011382307498238
  0.9924726227742013  0.4961383002171118  0.5176656578208423
  0.0010609023951602  0.7674174561268430  0.7478819140227131
  0.2590865955976156  0.5015083281359907  0.7467291465875263
  0.2497573331014138  0.7517741753463199  0.5020936290275273
  0.5105615024220640  0.0055077423064205  0.9976251186609417
  0.4806859062429965  0.2435100878544603  0.2503957334724660
  0.7590635980011058  0.0073802263676725  0.2462449247555512
  0.7588408629542513  0.2532261558906796  0.0036836121626038
  0.4977789100840795  0.9995770613459101  0.5251601863448698
  0.5027154849390243  0.2284729907364706  0.7580584556221197
  0.7372879222839614  0.9939596775195341  0.7439559434406888
  0.7469392790265914  0.2573527419233770  0.4998679156980685
  0.4994220373444094  0.4910165632525150  0.0113425217972605
  0.5267133862912630  0.7411400232311465  0.2694431985127821
  0.7624377570563965  0.4859753620479381  0.2483680620411590
  0.7379153021619800  0.7731634766030666  0.0144518643263964
  0.4993114012141788  0.5270524993071746  0.4975099681988482
  0.5200740535557031  0.7285522536670186  0.7508025790583090
  0.7542539739850085  0.5024440179602081  0.7533590040069882
  0.7547653827811942  0.7476696289266087  0.4942151262808423

  0.00000000E+00  0.00000000E+00  0.00000000E+00
  0.00000000E+00  0.00000000E+00  0.00000000E+00
  0.00000000E+00  0.00000000E+00  0.00000000E+00
  0.00000000E+00  0.00000000E+00  0.00000000E+00
  0.00000000E+00  0.00000000E+00  0.00000000E+00
  0.00000000E+00  0.00000000E+00  0.00000000E+00
  0.00000000E+00  0.00000000E+00  0.00000000E+00
  0.00000000E+00  0.00000000E+00  0.00000000E+00
  0.00000000E+00  0.00000000E+00  0.00000000E+00
  0.00000000E+00  0.00000000E+00  0.00000000E+00
  0.00000000E+00  0.00000000E+00  0.00000000E+00
  0.00000000E+00  0.00000000E+00  0.00000000E+00
  0.00000000E+00  0.00000000E+00  0.00000000E+00
  0.00000000E+00  0.00000000E+00  0.00000000E+00
  0.00000000E+00  0.00000000E+00  0.00000000E+00
  0.00000000E+00  0.00000000E+00  0.00000000E+00
  0.00000000E+00  0.00000000E+00  0.00000000E+00
  0.00000000E+00  0.00000000E+00  0.00000000E+00
  0.00000000E+00  0.00000000E+00  0.00000000E+00
  0.00000000E+00  0.00000000E+00  0.00000000E+00
  0.00000000E+00  0.00000000E+00  0.00000000E+00
  0.00000000E+00  0.00000000E+00  0.00000000E+00
  0.00000000E+00  0.00000000E+00  0.00000000E+00
  0.00000000E+00  0.00000000E+00  0.00000000E+00
  0.00000000E+00  0.00000000E+00  0.00000000E+00
  0.00000000E+00  0.00000000E+00  0.00000000E+00
  0.00000000E+00  0.00000000E+00  0.00000000E+00
  0.00000000E+00  0.00000000E+00  0.00000000E+00
  0.00000000E+00  0.00000000E+00  0.00000000E+00
  0.00000000E+00  0.00000000E+00  0.00000000E+00
  0.00000000E+00  0.00000000E+00  0.00000000E+00
  0.00000000E+00  0.00000000E+00  0.00000000E+00
