Au
 1.0000000000000000
     8.3156841465727975   -0.0960023961019751   -0.0291776441352131
    -0.0272370632962394    8.2669575420659402    0.0121968212393546
     0.0563341054365590   -0.1481529979417419    8.3121900858207223
 Au 
  32
Cartesian
  0.0606546200000000  0.0745767900000000  0.2001802700000000
  0.0366493500000000  1.9094370700000001  1.9822561100000000
  2.2727615200000000  0.1084726600000000  1.9354635300000000
  2.1768569699999998  2.0581703000000000 -0.0257498100000000
 -0.0808272900000000 -0.1349359600000000  4.0877699700000001
  0.1427539300000000  1.8953444200000000  6.0268309999999996
  1.9740636400000000 -0.0995979200000000  6.1899551600000002
  2.0735234600000001  2.0656037100000000  4.0316230700000002
 -0.0230069600000000  4.2015159500000001 -0.1408938000000000
 -0.0407877100000000  6.1919012200000001  2.1715142200000002
  2.0859463499999999  3.9128497300000000  2.1639714099999998
  2.1866340300000000  6.1171357799999999  0.0107809300000000
 -0.0469464100000000  4.0255831899999999  4.3092062899999997
  0.0300511900000000  6.2333047300000004  6.2258657299999998
  2.1828889999999999  4.0104449600000001  6.2055118800000004
  2.0847119699999999  6.1165212100000002  4.1753796100000002
  4.2453843899999999 -0.0031310100000000 -0.0345702700000000
  4.0047054900000001  1.9298436800000001  2.0702816999999998
  6.3258041000000000 -0.0483418300000000  2.0247769500000001
  6.3035913099999998  2.0200136000000000  0.0115662500000000
  4.1689681399999996 -0.1290884400000000  4.3507021200000002
  4.2169048000000000  1.7282059900000000  6.2892445700000001
  6.1731280999999996 -0.2309358000000000  6.1623172200000003
  6.2324612000000004  1.9817593000000000  4.1363420900000003
  4.1403010399999998  4.0095869400000002  0.0856980800000000
  4.3749745200000003  6.0364885399999997  2.2333343800000001
  6.3409466200000004  3.9075453599999999  2.0481637600000000
  6.1160260099999997  6.3187269099999996  0.1080261500000000
  4.1657873199999997  4.2354779499999999  4.1272570599999998
  4.3472237299999996  5.8617485399999998  6.2345252400000000
  6.3008925199999997  3.9696607799999999  6.2461841099999997
  6.2838673700000003  6.0352743400000000  4.0951069899999997
Cartesian
  0.0000000000000000  0.0000000000000000  0.0000000000000000
  0.0000000000000000  0.0000000000000000  0.0000000000000000
  0.0000000000000000  0.0000000000000000  0.0000000000000000
  0.0000000000000000  0.0000000000000000  0.0000000000000000
  0.0000000000000000  0.0000000000000000  0.0000000000000000
  0.0000000000000000  0.0000000000000000  0.0000000000000000
  0.0000000000000000  0.0000000000000000  0.0000000000000000
  0.0000000000000000  0.0000000000000000  0.0000000000000000
  0.0000000000000000  0.0000000000000000  0.0000000000000000
  0.0000000000000000  0.0000000000000000  0.0000000000000000
  0.0000000000000000  0.0000000000000000  0.0000000000000000
  0.0000000000000000  0.0000000000000000  0.0000000000000000
  0.0000000000000000  0.0000000000000000  0.0000000000000000
  0.0000000000000000  0.0000000000000000  0.0000000000000000
  0.0000000000000000  0.0000000000000000  0.0000000000000000
  0.0000000000000000  0.0000000000000000  0.0000000000000000
  0.0000000000000000  0.0000000000000000  0.0000000000000000
  0.0000000000000000  0.0000000000000000  0.0000000000000000
  0.0000000000000000  0.0000000000000000  0.0000000000000000
  0.0000000000000000  0.0000000000000000  0.0000000000000000
  0.0000000000000000  0.0000000000000000  0.0000000000000000
  0.0000000000000000  0.0000000000000000  0.0000000000000000
  0.0000000000000000  0.0000000000000000  0.0000000000000000
  0.0000000000000000  0.0000000000000000  0.0000000000000000
  0.0000000000000000  0.0000000000000000  0.0000000000000000
  0.0000000000000000  0.0000000000000000  0.0000000000000000
  0.0000000000000000  0.0000000000000000  0.0000000000000000
  0.0000000000000000  0.0000000000000000  0.0000000000000000
  0.0000000000000000  0.0000000000000000  0.0000000000000000
  0.0000000000000000  0.0000000000000000  0.0000000000000000
  0.0000000000000000  0.0000000000000000  0.0000000000000000
  0.0000000000000000  0.0000000000000000  0.0000000000000000
