Pt
 1.0000000000000000
    19.9354000000000013    0.0000000000000000    0.0000000000000000
     0.0000000000000000   19.9354000000000013    0.0000000000000000
     0.0000000000000000    0.0000000000000000   19.9354000000000013
 Pt 
  38
Direct
  0.3009683337179088  0.4000045025432146  0.4998536392547929
  0.5003760019864161  0.6993323344402419  0.4003286249586163
  0.4008554506054556  0.5996407195240626  0.5996664240496804
  0.4999145188960341  0.5994787629041805  0.7000772289495069
  0.5001184897218014  0.6981278660072032  0.5998482177433109
  0.5989827864000722  0.3007322687279914  0.4997494803214382
  0.5993852157468623  0.5003064809334149  0.3009675306239152
  0.5994942539402268  0.4001053874013062  0.4009585385796121
  0.6006349343379114  0.4996052740351334  0.5008062446702849
  0.6995481329694914  0.3998997090602646  0.4999292770649196
  0.6985246882430249  0.5009556397162835  0.4010918356290818
  0.5994808065050111  0.4016100850747915  0.5994118623152783
  0.6003544393390651  0.4991003255515314  0.6990570738485307
  0.6992059221284749  0.5000968056823539  0.5996535128464942
  0.5997113927987399  0.5994192968287568  0.4002440262046409
  0.5993374936043420  0.6991024393791947  0.4991279833863378
  0.4991953469707153  0.5992538083008115  0.5000189301443663
  0.4009251998956629  0.6992529379897067  0.4998997687530724
  0.4004762969391133  0.5995860639866769  0.4005735094354765
  0.5003779001173790  0.5995745332423728  0.3008345220060796
  0.3008355132076607  0.4997517712210439  0.4005472516227414
  0.3012547232561172  0.4992568345756794  0.5994925965869758
  0.3012763957582993  0.5998880223120678  0.5010041448879882
  0.4006334214512876  0.3003688709531788  0.4995041955516317
  0.5009016974828696  0.3018224439941009  0.3998074299988964
  0.5005254231166668  0.3010495475385495  0.5994060585691784
  0.3999393325441175  0.4996947164340820  0.3006294074861803
  0.6996405564974868  0.5993732455832338  0.5010414137664656
  0.5005383017145379  0.4001836923262136  0.2999169276763947
  0.4003518595062050  0.5004862776768962  0.4993969180452862
  0.4999529058860118  0.4008273583675271  0.4992626573833482
  0.4998272249365450  0.5001440718520822  0.4009090316723015
  0.4005189777982884  0.3996855332724700  0.5999509410395577
  0.4011288501861011  0.4997036337369704  0.6990726431373335
  0.4996915291391193  0.4003164265577815  0.6997653059381802
  0.5000412753192812  0.5007233428975590  0.5994265256779396
  0.3997481465132377  0.4006642324708809  0.4003010072534285
  0.5987927004223642  0.6001357444545882  0.5990571300299968
