Pt
 1.0000000000000000
    21.5463013567337569    0.0000000000000000    0.0000000000000000
     0.0000000000000000   21.5463013567337569    0.0000000000000000
     0.0000000000000000    0.0000000000000000   21.5463013567337569
 Pt 
  55
Direct
  0.4979168638912195  0.5015860495528827  0.4985591277197478
  0.4997452547295240  0.5024893748929377  0.2769101648221101
  0.5017202721255700  0.6352582604959400  0.2772095521690705
  0.6110406835967418  0.4282846395405138  0.6759748222609979
  0.6124756236121118  0.5699483144081295  0.6768114164263519
  0.6089728999311208  0.4316532195486699  0.3222604471662593
  0.6123166877491393  0.5676060460454796  0.3195228297430460
  0.3854146627075143  0.4311502060699035  0.6818066524168835
  0.3913274301886108  0.5672349647230929  0.6813638984684424
  0.3893532189634111  0.4330694180643592  0.3211475164779254
  0.3909711880720212  0.5723183926482188  0.3204640260840905
  0.6804807798447415  0.6121358738852888  0.4315572768638549
  0.5013426838859321  0.3634091694142620  0.2767763102940290
  0.6768545412292875  0.6091392463467148  0.5685352106231274
  0.3199769898254650  0.6106655254725623  0.5718443586211766
  0.6770751498581793  0.3885921175693254  0.4314394775275336
  0.6788747993366677  0.3864762040654167  0.5697336613257548
  0.3179432918243784  0.3866830553447249  0.4283159103367792
  0.3218530538111461  0.3865651000651657  0.5728508353078688
  0.4320087654900899  0.6784037881022116  0.6112549004093437
  0.5700212591782773  0.6788186328522227  0.6095777958612489
  0.4297805111273060  0.3210480961660800  0.6140099491305688
  0.5658501233293900  0.3214254671990652  0.6099778552430094
  0.4323445330949433  0.6753337604949291  0.3891089621922435
  0.5696612359022836  0.6796970040253839  0.3859672819159281
  0.3190506396519693  0.6095545849169796  0.4315563365632591
  0.4321301737984901  0.3198159129917877  0.3896189272121361
  0.4998705996764495  0.6355140960525275  0.7196931330932936
  0.4985937234486230  0.3617026101588606  0.7217734715819221
  0.6103948850548193  0.4988759913840475  0.4325404692758267
  0.6104993141149512  0.4994446462913164  0.5667218585608352
  0.3900248005847958  0.4976917723583525  0.4316366802831087
  0.3898529362848081  0.4971219631926526  0.5691153561336278
  0.4310043531948337  0.6106522698332174  0.5011845398061856
  0.5661112010850041  0.6102451902210473  0.4994363757303021
  0.4283727321541171  0.3919978051063684  0.4973186999749809
  0.5651414898731321  0.3926677753142941  0.4995482329794929
  0.5019174428570874  0.4317248555094989  0.6126984456139262
  0.4992336337409614  0.5689077919709461  0.6125150150596717
  0.5014096967795184  0.4316407728648721  0.3873230946615281
  0.4983072478304737  0.5011521036126864  0.7192566730325017
  0.5025685968425307  0.5679380190315422  0.3890916794116012
  0.7209245541878337  0.5000980368555210  0.4984901724974383
  0.7199749875006675  0.5017883074684222  0.6395342315071414
  0.2805090859880283  0.4993949955423415  0.3636766204214948
  0.2757465293755947  0.4975613546150251  0.5018468692595672
  0.2789027629617710  0.4986810442360217  0.6349903662571827
  0.3645213556592813  0.7199572341056106  0.4978958398652162
  0.5005713825973790  0.7224110626827124  0.4968823540869168
  0.6376663072015425  0.7190085933314198  0.4994220684023346
  0.3649734105079877  0.2799852285605691  0.5028286437947771
  0.5027580989724972  0.2770894127559461  0.4984815176477306
  0.6388602949572164  0.2817608159046143  0.5008242106772340
  0.7229372142394136  0.4989761505698060  0.3634652783482263
  0.5656027927127906  0.3209773271753956  0.3881973867123126
