Pt
 1.0000000000000000
     7.9370372513386656   -0.0069939821594078    0.0195323346781324
    -0.0163966837629818    7.8851984079504840   -0.0174415935022218
    -0.0273943980609822    0.0071051610610284    7.9143198567064541
 Pt 
  32
Direct
  0.1216246213790181  0.1250754111812548  0.1229243509591900
  0.6258134966637644  0.8718434061835092  0.8764614843999976
  0.6269888090116355  0.6298514842736801  0.6315856130154650
  0.8808636868632976  0.8864736375984563  0.1264881994441396
  0.8717949443448240  0.6231551504659358  0.3739461926967410
  0.6317535824478347  0.8788758555930167  0.3774687095157284
  0.6227598071783345  0.6233550615265009  0.1249179626945510
  0.8790820070722765  0.3725988217352356  0.6271396080878092
  0.8753623218144578  0.1233270146362123  0.8755436986731115
  0.6261953640145647  0.3697984345181018  0.8692022638836777
  0.6270700745375507  0.1300931382620741  0.6232286877934091
  0.8697890359542956  0.3773967417004915  0.1251206228630067
  0.8781161327120023  0.1255290749320397  0.3778150470344557
  0.6244334595503477  0.3730985982007202  0.3722947181965519
  0.6204922363310872  0.1259345640280058  0.1274028616109106
  0.3700373461003713  0.8759935694973370  0.6225594302063905
  0.3735094470193653  0.6258625420092309  0.8785316065573889
  0.1304670508021227  0.8731479361857969  0.8767778597410930
  0.1300234600634918  0.6229209515516199  0.6261626257224971
  0.3723054364144460  0.8728749530970135  0.1305877617326615
  0.3819942202168411  0.6283571759189660  0.3782022050758789
  0.1263310986341549  0.8679780293039094  0.3738342627320145
  0.1250501098655546  0.6286589492251695  0.1241537884539574
  0.3755226750366009  0.3690739842206490  0.6262174859709871
  0.3689528618391079  0.1216203202134804  0.8773910060666418
  0.1268729900711641  0.3761355565804089  0.8737079222185390
  0.1288321607957471  0.1227522334623711  0.6220300885999641
  0.3759595610127848  0.3814953598040410  0.1209853918408614
  0.3730963082690122  0.1236037120265679  0.3772744364394210
  0.1210252679367577  0.3779208532939046  0.3791001804556706
  0.8744937385164568  0.6301630211971952  0.8764111128265314
  0.8747801081796635  0.8753667540529884  0.6289725173324449
