Pt
 1.0000000000000000
     7.9349830914252095   -0.0031058446870593    0.0031032120053529
    -0.0076598500410832    7.9296512402087265   -0.0068978168041842
     0.0064281404790720   -0.0077684210585161    7.9389414062519696
 Pt 
  32
Direct
  0.1260055959154871  0.1251087909959207  0.1239101052777911
  0.6257098993182370  0.8757183823662605  0.8743010949842864
  0.6250755062033369  0.6247085495868894  0.6256274633044341
  0.8756161274414311  0.8759129600656631  0.1264185340712834
  0.8749727920653909  0.6243190380520361  0.3750446526704915
  0.6244351233814204  0.8742915012923477  0.3741775831345199
  0.6245494323008820  0.6255767579665520  0.1242068512812828
  0.8744735934264414  0.3755252497607623  0.6261032060912217
  0.8745568499439008  0.1238898655841112  0.8749343632654251
  0.6253568689774172  0.3755026507962059  0.8746576978239070
  0.6254675459975603  0.1239500732031208  0.6253686055158861
  0.8747186436426673  0.3746170008379018  0.1261691453294326
  0.8743425553517142  0.1255256832576809  0.3756397497157852
  0.6259332329085658  0.3755434516686247  0.3744281944275085
  0.6244464241002003  0.1257502253185519  0.1253956933846866
  0.3748789088231845  0.8768244712708548  0.6245104834679115
  0.3758330790141423  0.6252912204418940  0.8756917841829983
  0.1244220369775059  0.8738151838865679  0.8751058993367996
  0.1257995287630606  0.6257826049541619  0.6263751206482285
  0.3753740128124416  0.8750890827810948  0.1253623069007093
  0.3761648072686640  0.6246070582201040  0.3754088981648424
  0.1244918109694486  0.8755809420208713  0.3756130811224536
  0.1228341031597463  0.6249428269813828  0.1252518856086964
  0.3757238997940535  0.3739642736944537  0.6252707700078933
  0.3749238247890982  0.1255362259229161  0.8740378978373703
  0.1247940138494749  0.3756123728025426  0.8736919581737570
  0.1252944000986656  0.1246923976634047  0.6259226672609171
  0.3743651600067208  0.3746371223752443  0.1253487704287118
  0.3752536593797634  0.1245136565722105  0.3749721667409587
  0.1243534827942572  0.3754681129302155  0.3728910585870791
  0.8747548122687352  0.6252601254237011  0.8727740659111560
  0.8742181878200824  0.8748546732592939  0.6246094106432940
