Pt
 1.0000000000000000
     7.9631929717485335   -0.0303699490879230   -0.0295060804542170
     0.1219609764827831    8.1581807152286583   -0.0439262830679753
     0.0193950206894420   -0.0429586987515768   16.1618716322001319
 Pt 
  32
Direct
  0.1262168004125384  0.1200049968576143  0.2965660893494363
  0.3730749263784963  0.8675244482527722  0.5547057498844327
  0.3611483073299888  0.3896682753426876  0.5561852249876839
  0.8663699597998193  0.6225177427602889  0.6801747528063877
  0.8672358172541519  0.0948686845423984  0.6786596415377563
  0.3683007022272098  0.6431319302570708  0.6855470033121090
  0.3511153095262244  0.1488824230967028  0.6853526695487380
  0.6330013455588864  0.8793316294197906  0.6775042920696436
  0.6341843959176100  0.3598782412802723  0.6751915414031614
  0.1202987161034071  0.8819667183096791  0.6863966498297651
  0.1321499814401515  0.3586810931792817  0.6762797740230915
  0.6327086044293705  0.6337184730067269  0.5506925943084890
  0.6202958247869514  0.1311932798596650  0.5659229401028354
  0.1176096955939770  0.6276657272963216  0.5619325601779546
  0.1279797715113243  0.1200090512624605  0.5694890494398913
  0.8861422537457371  0.8845906898022864  0.3252999204125439
  0.8499465257525330  0.3518160509693916  0.3151706174837349
  0.3507855254610417  0.8755235907312631  0.3167017502365098
  0.3627994977705256  0.3688231032650511  0.3126520705150607
  0.8853719370675384  0.6276022372308168  0.4449261386785819
  0.8824851501727672  0.1182889409679667  0.4431663086022416
  0.3882068695283096  0.6381813473901702  0.4486741636526785
  0.3485530163857671  0.1464586639759455  0.4352899693906249
  0.6285713522207390  0.8745058694077873  0.4449459538415547
  0.6187359739565588  0.3945123293859252  0.4427477563567177
  0.1270012033141018  0.8861973233139032  0.4531420511724336
  0.1241074815877486  0.3815069462750211  0.4429660227710019
  0.5900846039210750  0.6193877918834654  0.3162986777526652
  0.6091557036636506  0.1476631994061625  0.3174260029683767
  0.1038123926415706  0.6216043494148752  0.3054908365675461
  0.8720704391328818  0.3485354644689247  0.5557340110359236
  0.8574328424671146  0.8638720009923525  0.5632874796719755
