Au                                      
   1.0000000000000000     
    -0.0160352596361630    6.3935544175617736    6.1635066989594076
     6.2944183148267676   -0.0046650642341728    6.2219725737104161
     6.2918011789234560    6.1574589179862667    0.1255414037620714
   Au
    27
Direct
  0.9951889249875023  0.9845232929771726  0.9982605714344714
  0.9970111884266544  0.0064386343978740  0.3213239004001593
  0.0107700934485706  0.0237847716617878  0.6545623791607937
  0.0116317918670603  0.3348626575208655  0.9983593608007126
  0.9959374652710054  0.3310144348772539  0.3233400574786600
  0.0104067327841051  0.3300831604386616  0.6625338652062069
  0.9982006352998383  0.6606727434404007  0.0075341398994837
  0.9938218375367356  0.6764402447043594  0.3284073157507734
  0.0202055963804000  0.6514661547248011  0.6602562299823518
  0.3494606818570745  0.0202054914591869  0.9874342862264314
  0.3099330390709412  0.0083515616453980  0.3305797028584792
  0.3343864095522946  0.0037388198191621  0.6689951505541032
  0.3281973250340045  0.3452069886907978  0.9951424207737034
  0.3341474123564936  0.3179094082304914  0.3406030622949245
  0.3498582002796553  0.3186056140643885  0.6638960841128352
  0.3324261581469443  0.6687357037548765  0.9972827253672918
  0.3372313832362224  0.6295643244968190  0.3589821251630525
  0.3382078952313918  0.6824904337456061  0.6486135177346597
  0.6606042748598213  0.9783218385943044  0.0225744827607883
  0.6425871569896557  0.9838135821206109  0.3674179191797364
  0.6881427394637143  0.9721891142462908  0.6645277285842539
  0.6537363229232795  0.3084340546918867  0.0367923655436257
  0.6746185142315895  0.3161895181862775  0.3480863422924969
  0.6696371380302608  0.3432211203891811  0.6656018141809525
  0.6726831506692648  0.6934807720310658  0.9837496687242435
  0.6604963056182598  0.6669583683512315  0.3439266943178581
  0.6525802928491160  0.6729604203428465  0.6614407069013311

  0.00000000E+00  0.00000000E+00  0.00000000E+00
  0.00000000E+00  0.00000000E+00  0.00000000E+00
  0.00000000E+00  0.00000000E+00  0.00000000E+00
  0.00000000E+00  0.00000000E+00  0.00000000E+00
  0.00000000E+00  0.00000000E+00  0.00000000E+00
  0.00000000E+00  0.00000000E+00  0.00000000E+00
  0.00000000E+00  0.00000000E+00  0.00000000E+00
  0.00000000E+00  0.00000000E+00  0.00000000E+00
  0.00000000E+00  0.00000000E+00  0.00000000E+00
  0.00000000E+00  0.00000000E+00  0.00000000E+00
  0.00000000E+00  0.00000000E+00  0.00000000E+00
  0.00000000E+00  0.00000000E+00  0.00000000E+00
  0.00000000E+00  0.00000000E+00  0.00000000E+00
  0.00000000E+00  0.00000000E+00  0.00000000E+00
  0.00000000E+00  0.00000000E+00  0.00000000E+00
  0.00000000E+00  0.00000000E+00  0.00000000E+00
  0.00000000E+00  0.00000000E+00  0.00000000E+00
  0.00000000E+00  0.00000000E+00  0.00000000E+00
  0.00000000E+00  0.00000000E+00  0.00000000E+00
  0.00000000E+00  0.00000000E+00  0.00000000E+00
  0.00000000E+00  0.00000000E+00  0.00000000E+00
  0.00000000E+00  0.00000000E+00  0.00000000E+00
  0.00000000E+00  0.00000000E+00  0.00000000E+00
  0.00000000E+00  0.00000000E+00  0.00000000E+00
  0.00000000E+00  0.00000000E+00  0.00000000E+00
  0.00000000E+00  0.00000000E+00  0.00000000E+00
  0.00000000E+00  0.00000000E+00  0.00000000E+00
