Au
 1.0000000000000000
    -0.0160352596361630    6.3935544175617736    6.1635066989594076
     6.2944183148267676   -0.0046650642341728    6.2219725737104161
     6.2918011789234560    6.1574589179862667    0.1255414037620714
 Au 
  27
Cartesian
 -0.1082838600000000 -0.0413981300000000 -0.1261671100000000
  2.0622814799999998  1.9593995500000001  0.0619789000000000
  4.2679149499999998  4.0991891799999998  0.2965444200000000
  2.0972565500000000  0.0627041700000000  2.1549929300000001
  4.1179998199999996  1.9634348800000001  2.0751158400000000
  6.2460459699999999  4.1445212099999997  2.2010857700000002
  4.2059827800000003  0.0318047400000000  4.1005431400000001
  6.3241704700000003  1.9794985000000000  4.2119422200000001
  8.2544774200000006  4.1916470600000002  4.2608313700000000
  0.0425171500000000  2.1568287599999998  2.2780437500000001
  2.1275401299999999  4.0170657299999997  2.0037389900000000
  4.2273562000000000  6.2572104199999998  2.1682423000000002
  2.1370515399999999  2.0668267000000000  4.1701050000000004
  4.1387034099999997  4.2321559600000001  4.0803032200000002
  6.1769291099999997  6.3232639900000001  4.2220551999999998
  4.1868751700000004  2.1055335300000002  6.2094249300000000
  6.2159777800000002  4.3635879299999996  6.0407269699999997
  8.3714043300000007  6.1529778100000003  6.4124112400000000
 -0.0050102200000000  4.3627119600000004  3.9395919799999999
  2.1995323600000001  6.3708522099999998  3.9060049600000002
  3.9949884500000001  8.4916099799999998  4.1517595600000003
  2.1624203799999999  4.4048073700000003  5.9529953999999998
  4.1695014700000002  6.4550624900000004  6.1690374900000000
  6.3374737799999998  8.3781761600000006  6.3463859700000000
  4.2520275700000001  4.1975404500000000  8.4588653600000008
  6.3514421199999997  6.3375221599999998  8.2639471199999992
  8.3870835199999991  8.2419621900000006  8.2923624799999995
Cartesian
  0.0000000000000000  0.0000000000000000  0.0000000000000000
  0.0000000000000000  0.0000000000000000  0.0000000000000000
  0.0000000000000000  0.0000000000000000  0.0000000000000000
  0.0000000000000000  0.0000000000000000  0.0000000000000000
  0.0000000000000000  0.0000000000000000  0.0000000000000000
  0.0000000000000000  0.0000000000000000  0.0000000000000000
  0.0000000000000000  0.0000000000000000  0.0000000000000000
  0.0000000000000000  0.0000000000000000  0.0000000000000000
  0.0000000000000000  0.0000000000000000  0.0000000000000000
  0.0000000000000000  0.0000000000000000  0.0000000000000000
  0.0000000000000000  0.0000000000000000  0.0000000000000000
  0.0000000000000000  0.0000000000000000  0.0000000000000000
  0.0000000000000000  0.0000000000000000  0.0000000000000000
  0.0000000000000000  0.0000000000000000  0.0000000000000000
  0.0000000000000000  0.0000000000000000  0.0000000000000000
  0.0000000000000000  0.0000000000000000  0.0000000000000000
  0.0000000000000000  0.0000000000000000  0.0000000000000000
  0.0000000000000000  0.0000000000000000  0.0000000000000000
  0.0000000000000000  0.0000000000000000  0.0000000000000000
  0.0000000000000000  0.0000000000000000  0.0000000000000000
  0.0000000000000000  0.0000000000000000  0.0000000000000000
  0.0000000000000000  0.0000000000000000  0.0000000000000000
  0.0000000000000000  0.0000000000000000  0.0000000000000000
  0.0000000000000000  0.0000000000000000  0.0000000000000000
  0.0000000000000000  0.0000000000000000  0.0000000000000000
  0.0000000000000000  0.0000000000000000  0.0000000000000000
  0.0000000000000000  0.0000000000000000  0.0000000000000000
