Pt
 1.0000000000000000
    19.9354000000000013    0.0000000000000000    0.0000000000000000
     0.0000000000000000   19.9354000000000013    0.0000000000000000
     0.0000000000000000    0.0000000000000000   19.9354000000000013
 Pt 
  38
Direct
  0.2991426954061619  0.4020910370496704  0.4998588054415762
  0.5045287985192171  0.7003953896084352  0.3990939313984168
  0.3996693449842992  0.6011470384341422  0.6001158306329444
  0.4986350552283876  0.6001307533332664  0.6996747103143152
  0.4998026741374639  0.7018588957332182  0.5983056788426617
  0.6010502588360404  0.3018948167581287  0.4979739543726235
  0.6001630396179659  0.4998132798940577  0.3041553171744735
  0.5994601497838016  0.4002463497095619  0.4016006335463547
  0.5998958440763665  0.5031844678310944  0.4994547448257872
  0.7008433525286676  0.4015937794074861  0.4994564779236935
  0.7009254772916520  0.5001461856797456  0.3983236764750143
  0.6014683046239352  0.3987765913901903  0.5982205423517962
  0.6004164972862345  0.4996795414187826  0.6985566745588249
  0.6971302090753132  0.4993140829880514  0.6003723165825616
  0.5995274285943597  0.6005785201199876  0.4006439183562908
  0.5979991984108670  0.6986550392768641  0.4988297681511281
  0.4983064583605044  0.5998082055037772  0.5026490805301123
  0.4009723115663593  0.6992623885149031  0.4982096346198220
  0.4002809780591309  0.5987342997883163  0.3992811250338593
  0.5013690349829950  0.5998438411067748  0.3036668755078905
  0.3017805597078563  0.5012971101658356  0.4004262387511662
  0.3030616135116426  0.4987194312629794  0.5991859461059221
  0.3017345967474944  0.6001431022201711  0.5018195887717327
  0.4015183146563400  0.3001340464700984  0.5015296748497646
  0.5029265291892814  0.3011277611685744  0.4016790423066505
  0.5007662906186984  0.2998629814300189  0.6015274225749169
  0.3998101021298795  0.5001141311435937  0.3018328210118683
  0.7011126960081061  0.5991975475786790  0.5020388660373004
  0.4994479945223070  0.4012449607231356  0.3002836090572549
  0.3998529640739588  0.5006458972481114  0.4982330196534807
  0.5013273759242353  0.4006924606478926  0.4991090497306299
  0.5022015896345194  0.4987950444937146  0.3982786931789680
  0.4002203181275519  0.4008825255575508  0.6018509084342426
  0.4012639851721058  0.5011791381161150  0.7013232631399420
  0.5016915672622571  0.4000894724961626  0.7015462132688584
  0.5032934543575749  0.4999593196023154  0.5998303655808259
  0.4023221851580605  0.4026197126719303  0.3975515886312790
  0.6021548581919600  0.6010620524293466  0.5994332238129156
