Au                                      
   1.0000000000000000     
     8.2656948773296861   -0.1612044116744745    0.0325141890945691
    -0.0657389104160398    8.3608381518172159   -0.0099333387347908
    -0.0138082157333865    0.1669561853497384    8.2516204347845754
   Au
    32
Direct
  0.0247691103613263  0.0075256364123888  0.0044083531768280
  0.9912325893116005  0.2634769909754198  0.2499923339606482
  0.2640815512101966  0.0070581571416994  0.2523924555223047
  0.2607819400498883  0.2154651973528132  0.0056240911523275
  0.9882810301340186  0.9888816007434755  0.4827699966885604
  0.9879032018658620  0.2649190778674324  0.7362664589986494
  0.2516433937921363  0.9944949226314250  0.7520304556366284
  0.2252786351195510  0.2380980896947307  0.5039153084777510
  0.9934313958203305  0.4840780626975913  0.9986122524804344
  0.0089292615651075  0.7471435393966601  0.2514596700806067
  0.2665266185569379  0.4847634901238038  0.2534195652364346
  0.2610165678497154  0.7553741584035905  0.0352307389367468
  0.9952025435998308  0.5164161768301625  0.5005550721656533
  0.9969341077477907  0.7366969038902837  0.7400180113896724
  0.2615945073699706  0.4854793638568182  0.7349258797856422
  0.2571299672293534  0.7393244906185430  0.5045812299693537
  0.5073449940389736  0.0119989930078006  0.9959544041956150
  0.5119966171686272  0.2584474178026994  0.2431251190933068
  0.7487084742408641  0.9834684234593283  0.2625160299679692
  0.7351130184480894  0.2448163859289636  0.9848929345958553
  0.4987320813877787  0.9954710464448979  0.5049587067291270
  0.4772982105271808  0.2325570055851571  0.7553756225825197
  0.7571314212560836  0.0018491735226362  0.7392234946427294
  0.7822856351326521  0.2577922493096167  0.4988867116712470
  0.5065441001138140  0.4926006468201649  0.9915697768553713
  0.5123303627134916  0.7527994370105091  0.2467588786478387
  0.7482715361934638  0.5067277833547124  0.2390548695358206
  0.7592924768008587  0.7553301655206326  0.0029709705403533
  0.4962878431389299  0.4776572798886747  0.5014546206391444
  0.4951487762640241  0.7459023229301138  0.7433847858097096
  0.7421914058528145  0.4989707619795212  0.7441734205317374
  0.7522136229093164  0.7251302927277550  0.5062655683045634

  0.00000000E+00  0.00000000E+00  0.00000000E+00
  0.00000000E+00  0.00000000E+00  0.00000000E+00
  0.00000000E+00  0.00000000E+00  0.00000000E+00
  0.00000000E+00  0.00000000E+00  0.00000000E+00
  0.00000000E+00  0.00000000E+00  0.00000000E+00
  0.00000000E+00  0.00000000E+00  0.00000000E+00
  0.00000000E+00  0.00000000E+00  0.00000000E+00
  0.00000000E+00  0.00000000E+00  0.00000000E+00
  0.00000000E+00  0.00000000E+00  0.00000000E+00
  0.00000000E+00  0.00000000E+00  0.00000000E+00
  0.00000000E+00  0.00000000E+00  0.00000000E+00
  0.00000000E+00  0.00000000E+00  0.00000000E+00
  0.00000000E+00  0.00000000E+00  0.00000000E+00
  0.00000000E+00  0.00000000E+00  0.00000000E+00
  0.00000000E+00  0.00000000E+00  0.00000000E+00
  0.00000000E+00  0.00000000E+00  0.00000000E+00
  0.00000000E+00  0.00000000E+00  0.00000000E+00
  0.00000000E+00  0.00000000E+00  0.00000000E+00
  0.00000000E+00  0.00000000E+00  0.00000000E+00
  0.00000000E+00  0.00000000E+00  0.00000000E+00
  0.00000000E+00  0.00000000E+00  0.00000000E+00
  0.00000000E+00  0.00000000E+00  0.00000000E+00
  0.00000000E+00  0.00000000E+00  0.00000000E+00
  0.00000000E+00  0.00000000E+00  0.00000000E+00
  0.00000000E+00  0.00000000E+00  0.00000000E+00
  0.00000000E+00  0.00000000E+00  0.00000000E+00
  0.00000000E+00  0.00000000E+00  0.00000000E+00
  0.00000000E+00  0.00000000E+00  0.00000000E+00
  0.00000000E+00  0.00000000E+00  0.00000000E+00
  0.00000000E+00  0.00000000E+00  0.00000000E+00
  0.00000000E+00  0.00000000E+00  0.00000000E+00
  0.00000000E+00  0.00000000E+00  0.00000000E+00
