Au
 1.0000000000000000
     8.2656948773296861   -0.1612044116744745    0.0325141890945691
    -0.0657389104160398    8.3608381518172159   -0.0099333387347908
    -0.0138082157333865    0.1669561853497384    8.2516204347845754
 Au 
  32
Cartesian
  0.2041783100000000  0.0596637400000000  0.0371066500000000
 -0.0932413800000000  2.2460395900000001  2.0599395800000000
  2.1788684400000000  0.0585794800000000  2.0911630300000001
  2.1413018400000001  1.7603694200000000  0.0527466900000000
 -0.1028007100000000 -0.0104685500000000  3.9833641800000001
 -0.1275704600000000  2.3398198300000002  6.0723665100000002
  2.0699852100000000  0.0389630500000000  6.2137065399999996
  1.8394739800000000  2.0385154600000002  4.1630775000000000
 -0.0860976800000000  4.0481255300000001 -0.0164732500000000
  0.0212179400000000  6.2872895199999999  2.0678184499999999
  2.1676606100000000  4.0523737799999999  2.0949726399999999
  2.1073393600000001  6.2793660500000001  0.2916940400000000
 -0.0805147200000000  4.4020162100000002  4.1251047400000003
 -0.0839897100000000  6.2834484000000002  6.0989301999999999
  2.1201974799999999  4.1395446199999997  6.0680125100000000
  2.0697880999999998  6.2241648800000000  4.1646292000000003
  4.1928259800000003  0.0178599500000000 -0.0170060000000000
  4.2116606399999998  2.1188921600000001  2.0202561100000000
  6.1860576900000002 -0.2150842700000000  2.1906905000000001
  6.0603345500000003  1.9258445000000000 -0.1031880100000000
  4.1156923599999997 -0.0339576800000000  4.1829884399999999
  3.9194829400000000  1.9935435399999999  6.2462818200000001
  6.2478883900000000  0.0168256500000000  6.1243908400000002
  6.4422986499999997  2.1125436000000000  4.1394984299999997
  4.1546723500000002  4.0354896599999996 -0.0579863000000000
  4.1818709399999996  6.2526422600000000  2.0453408000000000
  6.1483715500000002  4.1559559999999998  1.9918859900000001
  6.2263843300000001  6.1932879900000000  0.0417001500000000
  4.0638390199999996  3.9973323700000001  4.1492048600000002
  4.0334490799999996  6.2806611200000004  6.1428191500000002
  6.0916502000000001  4.1764136100000000  6.1598119100000002
  6.1629083900000001  6.0259610300000004  4.1947659599999998
Cartesian
  0.0000000000000000  0.0000000000000000  0.0000000000000000
  0.0000000000000000  0.0000000000000000  0.0000000000000000
  0.0000000000000000  0.0000000000000000  0.0000000000000000
  0.0000000000000000  0.0000000000000000  0.0000000000000000
  0.0000000000000000  0.0000000000000000  0.0000000000000000
  0.0000000000000000  0.0000000000000000  0.0000000000000000
  0.0000000000000000  0.0000000000000000  0.0000000000000000
  0.0000000000000000  0.0000000000000000  0.0000000000000000
  0.0000000000000000  0.0000000000000000  0.0000000000000000
  0.0000000000000000  0.0000000000000000  0.0000000000000000
  0.0000000000000000  0.0000000000000000  0.0000000000000000
  0.0000000000000000  0.0000000000000000  0.0000000000000000
  0.0000000000000000  0.0000000000000000  0.0000000000000000
  0.0000000000000000  0.0000000000000000  0.0000000000000000
  0.0000000000000000  0.0000000000000000  0.0000000000000000
  0.0000000000000000  0.0000000000000000  0.0000000000000000
  0.0000000000000000  0.0000000000000000  0.0000000000000000
  0.0000000000000000  0.0000000000000000  0.0000000000000000
  0.0000000000000000  0.0000000000000000  0.0000000000000000
  0.0000000000000000  0.0000000000000000  0.0000000000000000
  0.0000000000000000  0.0000000000000000  0.0000000000000000
  0.0000000000000000  0.0000000000000000  0.0000000000000000
  0.0000000000000000  0.0000000000000000  0.0000000000000000
  0.0000000000000000  0.0000000000000000  0.0000000000000000
  0.0000000000000000  0.0000000000000000  0.0000000000000000
  0.0000000000000000  0.0000000000000000  0.0000000000000000
  0.0000000000000000  0.0000000000000000  0.0000000000000000
  0.0000000000000000  0.0000000000000000  0.0000000000000000
  0.0000000000000000  0.0000000000000000  0.0000000000000000
  0.0000000000000000  0.0000000000000000  0.0000000000000000
  0.0000000000000000  0.0000000000000000  0.0000000000000000
  0.0000000000000000  0.0000000000000000  0.0000000000000000
