Pt
 1.0000000000000000
    11.2111688362121047    0.1117357076168457   -0.0492976954048105
     5.6535371946810509    9.7156123328530200   -0.0083715830791044
     0.0405084405700232   -0.0535311420860088   14.6694019512523059
 Pt 
  48
Direct
  0.4947512699058849 -0.0029556076693057  0.3368598952234695
  0.5882535360365898  0.3244546784581988  0.4977058129021525
  0.5801397155549817  0.8395849409379910  0.5032503929340123
  0.0914382147705905  0.0821351042802513  0.4955712637957068
  0.0860605758176664  0.5767570566816297  0.5006204098894818
  0.5845817905113149  0.0793770125138993  0.5067402018845126
  0.5779321898140395  0.5822731077112304  0.5055161817364313
  0.1562967456422278  0.1722229486110766  0.6506108340202033
  0.1716373288401543  0.6663366905319588  0.6579259358897570
  0.6688132010285450  0.1658981353342128  0.6578820207912954
  0.0867093288695005  0.8351425585426276  0.4983476654118824
  0.6666582545715868  0.6759682726230289  0.6544009068690469
  0.1625315797810478  0.9188696437718955  0.6466933646920455
  0.6638822169268798  0.4200577737297017  0.6558366751307285
  0.6698837639265735  0.9083287004304977  0.6588634054099506
  0.4229331609722906  0.1622220974264615  0.6570466286179618
  0.4052837101983500  0.6657815384602628  0.6664793016681235
  0.9219416586906655  0.1680743520665360  0.6599164526026580
  0.9138852385198813  0.6695209744166507  0.6651505752592092
  0.4028260808995183  0.4257955814134623  0.6554001630380749
  0.4183283499608523  0.9076387682978024  0.6590400255618374
  0.1675560712461613  0.4277954674242559  0.6555549548247924
  0.0896992706557971  0.3288665029906665  0.5096521900087619
  0.8363409714500648  0.5842123679061337  0.5038135903153125
  0.8272144037955721  0.0936027310307257  0.4973223755811832
  0.5011984781131265  0.4932847048348459  0.3438605602710977
  1.0047544136189681 -0.0004153203161806  0.3530723138790631
  0.9975714115772056  0.5046790059988094  0.3467595059923510
  0.4983487825967572  0.2437042059023168  0.3409473735273360
  0.4955563504703325  0.7530239175237322  0.3449575105463325
  0.9993480351286619  0.2525105964087327  0.3406352600522190
  1.0044700740116626  0.7449198502827857  0.3439670475274583
  0.2381480080183312  0.0066126539117953  0.3442549023555138
  0.2520000652111499  0.5018834352872226  0.3535745437044570
  0.7583536925954367 -0.0121240538042365  0.3385016477375274
  0.7516183411402459  0.5015061692115476  0.3443397446868118
  0.2550616932125729  0.2454279089998442  0.3448997641897481
  0.2449736470979003  0.7536393737380259  0.3385884760245290
  0.7398237699343031  0.2565074366931154  0.3433401032241929
  0.7505667355741146  0.7483712391028525  0.3432318978677686
  0.3221715937221251  0.3465949032988287  0.4902544008966369
  0.3353374756195066  0.8275745616548772  0.5060270833532007
  0.8300750901221181  0.3405557904247216  0.4919090835487367
  0.8384557856202052  0.8372446297718208  0.4883357634285854
  0.3169444029314396  0.0924641430697854  0.4979965839212604
  0.3328500392979718  0.5936529773837557  0.4890290428275232
  0.9071086990224471  0.4083279179889307  0.6542273687314930
  0.9252853808837557  0.9195723145630562  0.6642667373407186
