Pt
 1.0000000000000000
     7.9049816934442889   -0.0967226470046847    0.0195085134567415
    -0.0394433462496239    7.9620676581368075   -0.0059600032408745
    -0.0082849294400319    0.1001737112098430   15.9126793884943112
 Pt 
  32
Direct
  0.1405221774513145  0.1296672755158705  0.3148305666369972
  0.3719686088577993  0.8723830529900640  0.5601238693752811
  0.3727114149109526  0.3609528467927731  0.5626377058131988
  0.8808178397287230  0.6283417672150216  0.6874791714963863
  0.8739106460654275  0.1291517670292788  0.6831441388312860
  0.3827325656446540  0.6266797765931377  0.6855480823663157
  0.3791248669450648  0.1202355335102542  0.6839323124595797
  0.6452409742027277  0.8797533704252812  0.6862185332915239
  0.6294778444595402  0.3760394010651942  0.6832013021584779
  0.1107864382068978  0.8641598405065125  0.6882158918282403
  0.1242095589976174  0.3721953075498167  0.6880941690626324
  0.6156803781667759  0.6216708406780886  0.5574773125698015
  0.6242117777617362  0.1146988428612418  0.5660796388647151
  0.1325152275403426  0.6302082208603602  0.5600490357634434
  0.1295885243309266  0.1324913989646681  0.5609267315566173
  0.8794896313120220  0.8682814632190674  0.3148788071888232
  0.8823109290807037  0.3656684963640672  0.3087658395444691
  0.3731079281343453  0.8665461230591819  0.3103433561437609
  0.3719596009973486  0.3853692282677719  0.3136169956755597
  0.8818774809416452  0.6286409934027543  0.4487821365154523
  0.8853938894972702  0.1153552482491916  0.4388897927583064
  0.3806061142257756  0.6231725119187893  0.4382748499119652
  0.3709094805384830  0.1149864663114712  0.4373836377393461
  0.6095102054757319  0.8676473967157146  0.4390248086253846
  0.6260397791825646  0.3715417714638048  0.4384494876299757
  0.1173927739390526  0.8843353767911595  0.4335356733316519
  0.1176802495372700  0.3678990091596511  0.4324515126931337
  0.6318240610394141  0.6032418797611118  0.3152081954839117
  0.6338194980710860  0.1294037377769446  0.3141985437162981
  0.1194748318078648  0.6335305752738769  0.3134405002544139
  0.8701070825520917  0.3743364925009720  0.5603674788689026
  0.8764303925125996  0.8593755670871506  0.5641376155388093
