Pt
 1.0000000000000000
    11.0372867101202754    0.0098517005355393    0.0609186935718884
     0.0065747971684372    7.9879427059149606    0.0014949731124617
     0.1155654278459959    0.0148136623316959   14.2481977073189885
 Pt 
  32
Direct
  0.0041724589484674  0.1136370825188832  0.4534827111186068
  0.1366093072595053  0.8618899281062439  0.5445636140504925
  0.1289983552799659  0.3694080812889086  0.5452830107476295
  0.5038479871950330  0.6124243085607887  0.6528393725340023
  0.5073437232357532  0.1318416904696927  0.6449743239234860
 -0.0201281535827455  0.6190363613308899  0.6553281109587713
  0.0070645089912844  0.1085309954408849  0.6390714843705541
  0.8682447276075076  0.8761858402154699  0.5338005821826819
  0.8829563425402203  0.3753286431671910  0.5422224996873145
  0.3776694147122264  0.8566880839361648  0.5559801835802157
  0.3801957107321847  0.3607502348203376  0.5511843486046714
  0.7468600653103639  0.6309015858720689  0.6480927580678786
  0.7455256257575736  0.1053291980395007  0.6515347371806107
  0.2542493980569617  0.6219729365617230  0.6471451130465186
  0.2484399738439518  0.1377043732549333  0.6436963155217661
  0.8734009587988258  0.8718387433662036  0.3492184703887061
  0.8867588730333708  0.3727679947357946  0.3531741489821785
  0.3797608850400248  0.8628960846308132  0.3587319716894952
  0.3767389750048881  0.3807558230708663  0.3461737340697865
  0.7431299216163708  0.6193953959763314  0.4505382286533335
  0.7506515016635739  0.1203474489267974  0.4493567640278983
  0.2531359339751346  0.6305100524741434  0.4518278982557651
  0.2466753953710286  0.1448483628512268  0.4450421662462307
  0.6158060660215817  0.8843427893384814  0.3423616193763454
  0.6198058367498946  0.3839631212092921  0.3585976906391471
  0.1224897908895805  0.8871755616320361  0.3533535961370222
  0.1215277245221531  0.3986629209427718  0.3491650931321698
  0.5140998505661565  0.6222115354145626  0.4500822434495103
  0.4910366205736396  0.1200157293488040  0.4476829744588443
  0.0007993112620664  0.6134550946093791  0.4529161582882251
  0.6227543997632633  0.3893735693882888  0.5366185955298636
  0.6328834678003999  0.8654833131516766  0.5502929010908040
