Pt
 1.0000000000000000
     7.9340881588923358   -0.0093175340611779    0.0093096360160587
    -0.0229795501232496    7.9180926052428875   -0.0206934504125525
     0.0192844214372160   -0.0233052631755483   15.9621054639497046
 Pt 
  32
Direct
  0.1280190669843588  0.1253276383715780  0.3118216065915919
  0.3771349435649899  0.8771589617975790  0.5611419725709551
  0.3752241074286548  0.3741254555919695  0.5631191484731990
  0.8768521999156627  0.6277463907517802  0.6886695172397104
  0.8749143664239326  0.1229541221166076  0.6866161770128089
  0.3733020430206033  0.6228688742285995  0.6853229866651299
  0.3736524313290630  0.1267305996836477  0.6853698598819500
  0.6234223281127230  0.8765784149806122  0.6881993426126580
  0.6236640370936981  0.3716635834555779  0.6864509861496344
  0.1260740547563679  0.8765105046656908  0.6860414315539718
  0.1263962744770617  0.3718472387664750  0.6870980105887270
  0.6241522181747452  0.6238503495880718  0.5639275643575959
  0.6230297251074720  0.1265787377248367  0.5631404535677225
  0.1278038557076440  0.6266341085589239  0.5613309017855029
  0.1233429574347549  0.1272532455741147  0.5627767628134354
  0.8746478473186350  0.8804804370003119  0.3127231865768138
  0.8775003903622257  0.3758778980866078  0.3144807026080695
  0.3732589142221244  0.8714391417107036  0.3136043217695134
  0.3774017650035308  0.3773551233787240  0.3155016152376318
  0.8761222535173881  0.6252690429792404  0.4383566272289370
  0.8784920622819792  0.1238227771114438  0.4384239738899465
  0.3734778951664914  0.6267450724528703  0.4387331082751288
  0.3685009232358423  0.1248235018228756  0.4381944440396930
  0.6271656229162721  0.8718903651699510  0.4382167197280794
  0.6247757056590242  0.3766094625363164  0.4363821759327576
  0.1243870813527386  0.8768374325843141  0.4358663535453811
  0.1258804202002781  0.3740778661242097  0.4391917981442020
  0.6230927405268802  0.6239087848668410  0.3139689053052379
  0.6257582779417317  0.1235393867494163  0.3134056265741627
  0.1230654512991181  0.6264018254300050  0.3103039540580452
  0.8742685140461846  0.3757777200119021  0.5588634329046585
  0.8726539129920142  0.8745609805994567  0.5616015001424933
