Pt
 1.0000000000000000
    11.2784142087027845   -0.0221595721782897   -0.0430440850414775
     5.5314351291946222    9.6551435855069005    0.0317961448803582
     0.0174553894946692   -0.1251109531351769   14.5469024271483409
 Pt 
  48
Direct
  0.5031038101540602  0.0049713959717616  0.3402928813713633
  0.5730099921155402  0.3400677280125136  0.5046284509602121
  0.5753361464901212  0.8411726099952991  0.5055696983376184
  0.0799498978384519  0.0858579744137487  0.4997396616918883
  0.0836841909821968  0.5850165861642863  0.5008146919103468
  0.5841495526153976  0.0929973665602676  0.4964051626415324
  0.5886638105332721  0.5791295764398710  0.5036336576735149
  0.1600262782122076  0.1635175019506626  0.6583265026012182
  0.1663788732841375  0.6733945600436609  0.6531235692931254
  0.6648776065950474  0.1634952883746393  0.6602701796114886
  0.0834365650248676  0.8314331142791537  0.4972506400634833
  0.6606319941234062  0.6728483724106757  0.6499549600167309
  0.1633289565944423  0.9162147334337603  0.6479335711705391
  0.6650433004008484  0.4165007671899013  0.6593915529220145
  0.6644735682305888  0.9198079903987104  0.6578321588790511
  0.4254096790059008  0.1682527582999894  0.6604947967059869
  0.4219142748553189  0.6684241516255424  0.6521804693661003
  0.9135153931705635  0.1702909336864419  0.6522849016545662
  0.9193320982946731  0.6693663390348984  0.6534020935060088
  0.4178465817797131  0.4173538117130769  0.6601983638532920
  0.4165786332936869  0.9224686315350021  0.6572983759083667
  0.1730609044087888  0.4148865707442597  0.6566318501558078
  0.0792675049035421  0.3399486596517400  0.5027179880398430
  0.8375535844008849  0.5838680795707398  0.5059427057082058
  0.8234235753044498  0.0906819990531541  0.4956453913490666
  0.5083628406297591  0.5003948606922310  0.3351082005443582
  1.0000883159954164  0.0018471265668651  0.3411196376596250
  0.9979582202877874  0.5053500877987244  0.3427440232629888
  0.5055986827801833  0.2466483910338644  0.3359224672878049
  0.5005721605565386  0.7517470526403977  0.3421875321827574
  1.0075000318586356  0.2400647689446190  0.3440547228484923
  0.9996403842436045  0.7454126289673725  0.3454586413108369
  0.2484937111147600 -0.0040900863516058  0.3424773259023181
  0.2467265430857269  0.4935958441623061  0.3457934167442772
  0.7514820017674676  0.0048492031068742  0.3390615413781645
  0.7539255572526373  0.4991476707223957  0.3393090878876499
  0.2508315846508059  0.2521862390329104  0.3431610620107977
  0.2548557715126430  0.7444363883594974  0.3424870800635780
  0.7510123945480586  0.2520184752712116  0.3403854779547417
  0.7423559086632345  0.7559150828263042  0.3470199267956685
  0.3209589336742464  0.3438190534301379  0.4986999465715483
  0.3312970591043222  0.8293864633115879  0.5026133881940181
  0.8321278363409165  0.3364701741242451  0.4964596224602710
  0.8230118465202902  0.8365094308310728  0.4949161790910976
  0.3350531089745524  0.0947395111401071  0.4999627783108552
  0.3387474111555394  0.5700133009879533  0.4947462026994748
  0.9186736275542144  0.4256321496040645  0.6569776859449750
  0.9187705702780103  0.9233179412293134  0.6542134227675771
