Pt
 1.0000000000000000
     8.1297820915859393   -0.0390434466220565    0.0202321906762145
    -0.0978898272725940    7.9465054733302942    0.0260871735689731
    -0.0035035275382846    0.0473814021333636    7.9229282429200971
 Pt 
  32
Direct
  0.1269628024284146  0.1201822451549149  0.1259240168147107
  0.6265114183272548  0.8684941389721214  0.8763161146108835
  0.6350197219956674  0.6270011125974458  0.6249567181772460
  0.8590519643214201  0.8697064744894283  0.1233239104463843
  0.8728740761266229  0.6195460439397303  0.3697493628938321
  0.6223437570608417  0.8804450226266682  0.3708747145278704
  0.6385965119144099  0.6143767819780034  0.1162369179199018
  0.8886896142102954  0.3856978175845631  0.6335751091582172
  0.8732960146071391  0.1256489102336172  0.8680108985880448
  0.6106744867314948  0.3681733578917237  0.8967303877075145
  0.6322659419940153  0.1391435248513714  0.6248350283928767
  0.8831624374343547  0.3631398451511119  0.1160604827917238
  0.8628553984431176  0.1110645610299635  0.3688982551600806
  0.6309328539614389  0.3680339349440448  0.3724728270373618
  0.6259913537215270  0.1280228866782733  0.1276281416795441
  0.3732194080155886  0.8775566535243633  0.6210027631428451
  0.3797595206053339  0.6215122643693561  0.8773476120856819
  0.1083761117004995  0.8773425403659579  0.8757608694630876
  0.1306926288091188  0.6307876270320113  0.6150233772288319
  0.3781310807288181  0.8724251001201588  0.1333987008914006
  0.3730088023838702  0.6201904165924031  0.3839155974258492
  0.1309872748064333  0.8672271686235572  0.3901191554486628
  0.1131391540675182  0.6311110626920381  0.1320942031960756
  0.3716259895164435  0.3690729808749929  0.6324636999818778
  0.3887946805788013  0.1247143009866097  0.8778038870271262
  0.1306036204518499  0.3657560633862210  0.8812851456755230
  0.1288881155386165  0.1218597559763399  0.6266635658226507
  0.3817968382076372  0.3719573324130336  0.1183090063849199
  0.3636654963073178  0.1290702399556649  0.3799701007356956
  0.1333794644603332  0.3551234010020139  0.3814906992428362
  0.8957320906418536  0.6247523588248742  0.8794961169251768
  0.8806616319601693  0.8619451406763960  0.6140763256055989
