Pt
 1.0000000000000000
    19.9354000000000013    0.0000000000000000    0.0000000000000000
     0.0000000000000000   19.9354000000000013    0.0000000000000000
     0.0000000000000000    0.0000000000000000   19.9354000000000013
 Pt 
  38
Direct
  0.2994447635863840  0.3956342661797606  0.5009785863338583
  0.4997062085536282  0.6949370461590938  0.4035981144095428
  0.3967991046078834  0.5982058529048827  0.5957490599636827
  0.4996914744625139  0.5984053422554851  0.7002594720948664
  0.4943846544338212  0.6947756975029344  0.6008319692607120
  0.6012888645324397  0.3013487108360002  0.4973300721329895
  0.6075308140293146  0.5017985874374229  0.3007249184867120
  0.6011600780521082  0.3985500000000000  0.3984010338393009
  0.6025772164090011  0.5006283335172607  0.4992062943306881
  0.6985890997923292  0.4021324232270233  0.4972780651504358
  0.7013278093241168  0.5013111154027509  0.4012314124622530
  0.5986340424571365  0.3948891138376957  0.5998782331932140
  0.5983179264022793  0.4989591656049038  0.6973814440643277
  0.6970897393581267  0.4997496122475596  0.5980595608816476
  0.6001112252575819  0.5932765121341934  0.4020517305898051
  0.6017960356952957  0.6978892653270061  0.4959389884326374
  0.5029705945203005  0.6015468698897438  0.4983018324187123
  0.4022912572609529  0.7019912963873310  0.4989988733609559
  0.4022790418050302  0.5968159936595202  0.4016339912918728
  0.5029194111981700  0.5957279863960592  0.2972441576291421
  0.2989935817691142  0.5013361708317866  0.4001871043470409
  0.3005565511602475  0.5050249159786109  0.5975629518344251
  0.3071173385033658  0.6013096421441254  0.5011168067859184
  0.3982783009119455  0.3044059612548531  0.4999854871234086
  0.5034881697884165  0.3026919409693309  0.4010919083640157
  0.5027482623875116  0.2922578222659189  0.6009315534175386
  0.3975998495139300  0.4971724675702519  0.2966849112633807
  0.6989795539592885  0.6023128389698726  0.4984948914995435
  0.4969668158150827  0.4042299572619561  0.2975451061930034
  0.3943579491758379  0.4971446452040089  0.5009517361076276
  0.4983979789720798  0.3965044027207881  0.4996536838989937
  0.5022264168263491  0.4992452180543154  0.4008581718952215
  0.4046261946085857  0.3965889849212957  0.6003839095277747
  0.4032014351354876  0.5014759232320394  0.7077866157689335
  0.4987738048897939  0.4046430686116154  0.6991561097344422
  0.4992677538449191  0.4966171529038795  0.5970358723677477
  0.4009049524965639  0.3991030132327417  0.4009935892934177
  0.6035374564844447  0.6060822998284459  0.5990920528306429
