Pt
 1.0000000000000000
     7.9204692645735797    0.0113911669474185   -0.0103484896621515
    -0.0026579605629675    7.9273578141000538    0.0071604317820465
    -0.0019079398220880   -0.0039886075264597    7.9229720905485133
 Pt 
  32
Direct
  0.1257154607688131  0.1229077873373697  0.1250873044853570
  0.6265511112875162  0.8763482279338140  0.8728161070066044
  0.6252483142581408  0.6220456841514717  0.6220599294940198
  0.8765591254932594  0.8734979854520960  0.1238607481001372
  0.8747694186536078  0.6272549657240735  0.3735836239313031
  0.6262172428870969  0.8752893860310524  0.3734659530425283
  0.6248818355425458  0.6237319156446584  0.1233359504760376
  0.8734649042468909  0.3760449615150115  0.6229363630001442
  0.8737244528003195  0.1237477267838184  0.8752202320116319
  0.6267669174816127  0.3779792187724554  0.8757467547856435
  0.6275002297787492  0.1237448580096094  0.6236279096478097
  0.8767116575273994  0.3763715500639166  0.1275651355532799
  0.8756821637729024  0.1227144517907297  0.3744790673815195
  0.6255177036970160  0.3757961288799310  0.3721738392165985
  0.6262997284173818  0.1235723261380045  0.1230955863415084
  0.3753915363244313  0.8738036012995607  0.6232587175519174
  0.3725300212908012  0.6227950041339884  0.8766729356801257
  0.1268488799594532  0.8744494863165466  0.8755374232233419
  0.1235911278903145  0.6266234063285914  0.6273727889670169
  0.3744507569480801  0.8750889205917620  0.1236305573304534
  0.3762758622472970  0.6240707434285448  0.3753454369014710
  0.1273289561863849  0.8745268386414171  0.3748735195167782
  0.1262778918496564  0.6250854336425875  0.1232684367294296
  0.3743055965975603  0.3754106480864021  0.6265851246886455
  0.3767391707818076  0.1251627030465800  0.8767548065332678
  0.1219949567789787  0.3781141354597465  0.8745837375020407
  0.1221250871606690  0.1275059455539957  0.6225634062830004
  0.3728730439461505  0.3745318868174535  0.1244867243684221
  0.3745113519149658  0.1248991404691044  0.3760732274487166
  0.1255595688733693  0.3723920278970524  0.3756003214675610
  0.8733753522274684  0.6251024266372839  0.8763411385487149
  0.8764065327703714  0.8742268936370718  0.6238642639933999
