Pt
 1.0000000000000000
    11.2501559320143070   -0.0303699490879230   -0.0295060804542170
     0.1219609764827831    8.1581807152286583   -0.0439262830679753
     0.0193950206894420   -0.0429586987515768   14.4186962831654277
 Pt 
  32
Direct
  0.0008649375227108  0.1199929347141087  0.4317104190480940
  0.1236389613978466  0.8675217936067280  0.5409842093784253
  0.1151964758835214  0.3896795704775965  0.5426497207475923
  0.4938926640841857  0.6225231012453304  0.6409531736537126
  0.4945058818457223  0.0948721352547957  0.6392543673566980
 -0.0047418312494407  0.6431385985245568  0.6469737604618186
 -0.0169063394572153  0.1489077129805529  0.6467662630100067
  0.8806656402732891  0.8793171495260046  0.5392195724608821
  0.8815035506000158  0.3598610004699845  0.5366265020708099
  0.3716722646474987  0.8819717490841728  0.5491946377771322
  0.3800632723054123  0.3586667633503462  0.5378475233103267
  0.7554589514861040  0.6337027593724548  0.6352103671179380
  0.7466693800700669  0.1312007880790900  0.6522894986516893
  0.2447688830828905  0.6276736282992339  0.6478183031522519
  0.2521076357167665  0.1200104455128127  0.6562821260082661
  0.8828844079163342  0.8845860718574190  0.3651818682601582
  0.8572657179410358  0.3518444735962495  0.3538497088078768
  0.3578592669696343  0.8755520717270501  0.3555654493153948
  0.3663641391438311  0.3688359037999381  0.3510189472532492
  0.7573401656564956  0.6275954441911088  0.4585980968829397
  0.7552971552191895  0.1182841790287510  0.4566272417185417
  0.2593460450057328  0.6381738451683413  0.4627975476555299
  0.2312802463977134  0.1464859048054989  0.4478190654737959
  0.6275264193106703  0.8745065078811916  0.3598941071727800
  0.6205649946298922  0.3945222970501956  0.3574360647829692
  0.1264132365361588  0.8862048856559531  0.3690820439851139
  0.1243671286363422  0.3815111936742227  0.3576774892756210
  0.4752847879972552  0.6194276876702278  0.4538503675108569
  0.4887838787616908  0.1476830099249548  0.4551025192070393
 -0.0149957736070716  0.6216224008787430  0.4417276229388483
  0.6229277212924209  0.3485345592677723  0.5421373902089633
  0.6125649829616705  0.8638918645400974  0.5506128601600371
