Au                                      
   1.0000000000000000     
    -0.0507481070789282    6.0727275664346623    6.2664461672037062
     6.1681930676930969    0.0443951674086026    6.2239986393743463
     6.2201237623757502    6.4008881634588750   -0.0648225496240374
   Au
    27
Direct
  0.9910426184477785  0.0151648289984578  0.0177141405782422
  0.0151808835367220  0.9846748532713221  0.3368612804122364
  0.9967163175839104  0.0066651731538769  0.6786629005719433
  0.9729686704301770  0.3679102228107709  0.9801714773862926
  0.9887916976786215  0.3216902257738283  0.3293706359515198
  0.0091020087450246  0.3059891023424370  0.6776546851611513
  0.9965154874296687  0.6728434563748280  0.9960838712216216
  0.0116259277887565  0.6597733751180073  0.3075297065224873
  0.9927767986489400  0.6719461222906347  0.6528149339068960
  0.3262367747914254  0.0091600097600519  0.0027512844972293
  0.3139365294107179  0.0241525474767812  0.3313392365540224
  0.3533919088661293  0.0264413063182118  0.6551142716399596
  0.3481564760500078  0.3191730256763421  0.0076131295074546
  0.3196182539637107  0.3338658940291239  0.3287819256358020
  0.3052209035798228  0.3418088373653774  0.6736270068015244
  0.3242977022509166  0.6818342154965080  0.9944627730672195
  0.3336578517261657  0.6611530059652893  0.3484462703809186
  0.3261150651897609  0.6650501520505188  0.6840786433286112
  0.6648663309537426  0.0182210046025588  0.9803471038214866
  0.6631147486627569  0.9834436536987141  0.3300280295337146
  0.6678456103457222  0.0053157845589453  0.6597568491969596
  0.6741359963172968  0.3325455462350888  0.9708469904812063
  0.6556653416276035  0.3302860540867272  0.3457464783578530
  0.6489489307845062  0.3501232482416370  0.6926956893121812
  0.6513929685208808  0.6709598912537302  0.0044111373396660
  0.6578616867103406  0.6714152733269927  0.3449155117810818
  0.6649658278959549  0.6539552891867189  0.6769143439176446

  0.00000000E+00  0.00000000E+00  0.00000000E+00
  0.00000000E+00  0.00000000E+00  0.00000000E+00
  0.00000000E+00  0.00000000E+00  0.00000000E+00
  0.00000000E+00  0.00000000E+00  0.00000000E+00
  0.00000000E+00  0.00000000E+00  0.00000000E+00
  0.00000000E+00  0.00000000E+00  0.00000000E+00
  0.00000000E+00  0.00000000E+00  0.00000000E+00
  0.00000000E+00  0.00000000E+00  0.00000000E+00
  0.00000000E+00  0.00000000E+00  0.00000000E+00
  0.00000000E+00  0.00000000E+00  0.00000000E+00
  0.00000000E+00  0.00000000E+00  0.00000000E+00
  0.00000000E+00  0.00000000E+00  0.00000000E+00
  0.00000000E+00  0.00000000E+00  0.00000000E+00
  0.00000000E+00  0.00000000E+00  0.00000000E+00
  0.00000000E+00  0.00000000E+00  0.00000000E+00
  0.00000000E+00  0.00000000E+00  0.00000000E+00
  0.00000000E+00  0.00000000E+00  0.00000000E+00
  0.00000000E+00  0.00000000E+00  0.00000000E+00
  0.00000000E+00  0.00000000E+00  0.00000000E+00
  0.00000000E+00  0.00000000E+00  0.00000000E+00
  0.00000000E+00  0.00000000E+00  0.00000000E+00
  0.00000000E+00  0.00000000E+00  0.00000000E+00
  0.00000000E+00  0.00000000E+00  0.00000000E+00
  0.00000000E+00  0.00000000E+00  0.00000000E+00
  0.00000000E+00  0.00000000E+00  0.00000000E+00
  0.00000000E+00  0.00000000E+00  0.00000000E+00
  0.00000000E+00  0.00000000E+00  0.00000000E+00
