Au
 1.0000000000000000
    -0.0507481070789282    6.0727275664346623    6.2664461672037062
     6.1681930676930969    0.0443951674086026    6.2239986393743463
     6.2201237623757502    6.4008881634588750   -0.0648225496240374
 Au 
  27
Cartesian
  0.2041783100000000  0.0596637400000000  0.0371066500000000
  2.0000199900000002  2.2477203900000000 -0.0220897100000000
  4.2626459499999996  4.3244003199999996 -0.0230856500000000
  2.1473772100000001 -0.2747406200000000  2.1217676900000000
  4.0335423400000003  2.0544811300000001  1.9106126600000000
  6.1020339600000000  4.4064503100000003  1.9175857000000001
  4.1260463700000001 -0.0163562000000000  4.1661951000000004
  5.9818924000000004  2.0683550999999998  4.1593469799999996
  8.2056496600000006  4.1645620100000000  4.0946108199999998
  0.0570581400000000  1.9991643800000001  2.1011787300000000
  2.1940169500000000  4.0283886700000000  2.0961135299999998
  4.2200529600000003  6.3405398399999999  2.3366158499999998
  1.9984071699999999  2.1771599600000000  4.1677427900000001
  4.0881935399999998  4.0602729499999999  4.0595389700000002
  6.2828968700000001  6.1805091900000004  3.9964018800000001
  4.1547853500000000  1.9641985700000000  6.2762882600000003
  6.2285658100000001  4.2859308399999998  6.1832772000000000
  8.3406618399999992  6.3886438500000002  6.1385100200000000
 -0.0435934800000000  3.9125650300000001  4.2810305299999998
  1.9170406300000000  6.1386526999999997  4.0309329399999996
  4.1026661400000002  8.2789102499999991  4.1753368799999997
  1.8356586800000001  3.9220025100000000  6.2960897300000003
  4.1545802600000004  6.2094246399999999  6.1419793499999997
  6.4353477799999999  8.3903014799999998  6.2008678599999998
  4.1329910099999996  4.0137546100000003  8.2576864800000003
  6.2534509700000003  6.2325880099999997  8.2789842900000004
  8.2104677200000005  8.4000417800000005  8.1933100799999998
Cartesian
  0.0000000000000000  0.0000000000000000  0.0000000000000000
  0.0000000000000000  0.0000000000000000  0.0000000000000000
  0.0000000000000000  0.0000000000000000  0.0000000000000000
  0.0000000000000000  0.0000000000000000  0.0000000000000000
  0.0000000000000000  0.0000000000000000  0.0000000000000000
  0.0000000000000000  0.0000000000000000  0.0000000000000000
  0.0000000000000000  0.0000000000000000  0.0000000000000000
  0.0000000000000000  0.0000000000000000  0.0000000000000000
  0.0000000000000000  0.0000000000000000  0.0000000000000000
  0.0000000000000000  0.0000000000000000  0.0000000000000000
  0.0000000000000000  0.0000000000000000  0.0000000000000000
  0.0000000000000000  0.0000000000000000  0.0000000000000000
  0.0000000000000000  0.0000000000000000  0.0000000000000000
  0.0000000000000000  0.0000000000000000  0.0000000000000000
  0.0000000000000000  0.0000000000000000  0.0000000000000000
  0.0000000000000000  0.0000000000000000  0.0000000000000000
  0.0000000000000000  0.0000000000000000  0.0000000000000000
  0.0000000000000000  0.0000000000000000  0.0000000000000000
  0.0000000000000000  0.0000000000000000  0.0000000000000000
  0.0000000000000000  0.0000000000000000  0.0000000000000000
  0.0000000000000000  0.0000000000000000  0.0000000000000000
  0.0000000000000000  0.0000000000000000  0.0000000000000000
  0.0000000000000000  0.0000000000000000  0.0000000000000000
  0.0000000000000000  0.0000000000000000  0.0000000000000000
  0.0000000000000000  0.0000000000000000  0.0000000000000000
  0.0000000000000000  0.0000000000000000  0.0000000000000000
  0.0000000000000000  0.0000000000000000  0.0000000000000000
