Pt
 1.0000000000000000
    11.2272135988984783   -0.0209819464782235    0.0585970040343974
     5.5620067076897648    9.5681814285934568   -0.0523247805066654
    -0.0821831941829465    0.0213154831830853   14.5181908656632785
 Pt 
  48
Direct
  0.4927419164437729  0.0001808279737662  0.3395212576641565
  0.5787993401773796  0.3287708649731066  0.4982721802607140
  0.5816830210394307  0.8616810374800362  0.5025249362217279
  0.0816275449189628  0.0953102337673688  0.5108106627129794
  0.0889409540580856  0.5755377525476523  0.5023540336820328
  0.5759288731970270  0.0960807220956708  0.5023629020774084
  0.5824382054760958  0.5842329526821464  0.5065012758944628
  0.1646760612263825  0.1717269401328674  0.6515632235554933
  0.1697184639708351  0.6583611644512189  0.6486804263043251
  0.6689076214380304  0.1762737289603304  0.6501623259347927
  0.0929027088429407  0.8429183429097257  0.5040465244316510
  0.6861450479208147  0.6637873266359222  0.6556495716378127
  0.1539874048310508  0.9197488070510915  0.6435472642783191
  0.6554594248560829  0.4251276455153302  0.6541457141631504
  0.6636689773245611  0.9238495204284143  0.6532267021000170
  0.4245896348661061  0.1644986050694526  0.6553620585991663
  0.4328185452674094  0.6613421466012275  0.6613615264782410
  0.9141179887752198  0.1658809577206707  0.6617900975493094
  0.9176273079735200  0.6713854798988630  0.6600768439729325
  0.4188103604793322  0.3986090394221113  0.6575055409065923
  0.4146748234138604  0.9072370740895817  0.6503498511511916
  0.1850439657842189  0.4106132074462190  0.6518006955208078
  0.0806042023373821  0.3292655808011866  0.4998590775960792
  0.8449449974775723  0.5774104341210801  0.5034560177941066
  0.8361582318763209  0.0792018524261080  0.5008703618475986
  0.4880110379638800  0.5071977969479613  0.3496528806935787
  0.9976914277236983 -0.0034561642406163  0.3466135191989297
  0.9940376797372423  0.5160489645695576  0.3363966133289131
  0.5108664255019498  0.2444625233229373  0.3380024881395312
  0.5025688653396665  0.7528108058725036  0.3407898839553116
  0.9913447911104587  0.2416352655517382  0.3468025068754639
  1.0083900752008486  0.7353646689695209  0.3448276375420609
  0.2456093821801686  0.0090374668976158  0.3415531291327125
  0.2614364241160409  0.4826634313934232  0.3409153091252921
  0.7607201621759629  0.0083036407198999  0.3481393660225234
  0.7469275601766637  0.4947374911293195  0.3520281184250151
  0.2632064336697422  0.2448763255036392  0.3447570601489652
  0.2638712678989269  0.7454371167106316  0.3457635213789727
  0.7458005361462243  0.2521215042944264  0.3486907488811638
  0.7382483244730115  0.7524449142516383  0.3389410499191167
  0.3226441747673682  0.3356268520943929  0.5039594724341159
  0.3344524992904359  0.8286400268948417  0.4955589335921973
  0.8393037140338080  0.3346436700760426  0.5045950071364256
  0.8193462789099011  0.8392393213557408  0.5002453351986462
  0.3314584209265713  0.0959189559330693  0.4971461330597137
  0.3422222742603760  0.5704986136996525  0.4904598555455335
  0.9142159882573080  0.4196579164543999  0.6526119175649283
  0.9064229102785120  0.9273342618880253  0.6600682787167182
