Pt
 1.0000000000000000
     7.9354052630971186   -0.0032000798700658   -0.0009725881378404
    -0.0009079021098746    7.9337810429468902    0.0004065607079785
     0.0018778035145520   -0.0049384332647247    7.9352887944053832
 Pt 
  32
Direct
  0.1252546222107973  0.1253139563980950  0.1258409012326017
  0.6257037531926476  0.8742467551067888  0.8750245892202285
  0.6249723905048153  0.6259413819361842  0.6249144758358696
  0.8745786135992595  0.8758005650345765  0.1255071849923839
  0.8754356365524655  0.6245090175192833  0.3749408540222131
  0.6259385356940128  0.8746701860194918  0.3756752931243683
  0.6249833936259137  0.6246813893755931  0.1253956669136734
  0.8748922451001531  0.3752566551235347  0.6249961133997676
  0.8745552458802707  0.1247987805731711  0.8747901662598040
  0.6250990706581762  0.3742464018977302  0.8752799891739087
  0.6249282071622891  0.1249710630092339  0.6258787509963072
  0.8753093023358876  0.3751063999032168  0.1251277335515404
  0.8753149259882181  0.1252550648648426  0.3748681786128925
  0.6243261516002062  0.3747818672912112  0.3750157804875300
  0.6253677697085844  0.1251886157757906  0.1249160999913706
  0.3749918051935013  0.8750604596373185  0.6250732186178996
  0.3753164878755260  0.6250508157535694  0.8748847933746926
  0.1250346505181299  0.8756058215844806  0.8749267796264780
  0.1247415236481921  0.6248581913712462  0.6256175241961724
  0.3755382282801868  0.8747520122505915  0.1250375808538011
  0.3750273940677689  0.6243297301409196  0.3753659969323065
  0.1248552480713259  0.8751208333963195  0.3753541704855898
  0.1249607422903632  0.6252854537163323  0.1243825189493756
  0.3748877776661081  0.3754069341304689  0.6244949357344712
  0.3743821137705009  0.1251488792867745  0.8748449424903513
  0.1254509557017916  0.3747463677883981  0.8741164177733698
  0.1245421984574477  0.1247439389650276  0.6247129475332729
  0.3754400194547046  0.3750649558192926  0.1249097175309156
  0.3757552999753212  0.1257121437800945  0.3744317519513735
  0.1251234328548073  0.3744945091330574  0.3745848469824377
  0.8751490912824382  0.6250812149428580  0.8751169032511678
  0.8751653942612649  0.8749206779869697  0.6247973332245124
